801
chain of 267 water molecules, AM1 monomer geometry, closest intermolecular contact 1.897 A
O      0.00000000     0.00000000     0.00000000
H      0.96140000     0.00000000     0.00000000
H     -0.22443437     0.93483644     0.00000000
O      3.80000000     0.00000000     0.00000000
H      2.95425679    -0.24655118    -0.38499468
H      4.01789094    -0.74926051     0.56162459
O      7.60000000     0.00000000     0.00000000
H      8.52942643     0.11883708     0.21525385
H      7.15791825     0.10783270     0.84689185
O     11.40000000     0.00000000     0.00000000
H     11.34090565     0.59822888     0.75027996
H     12.20723750    -0.49381138     0.16972891
O     15.20000000     0.00000000     0.00000000
H     14.32598298     0.27744229     0.28880787
H     15.64183870     0.82863288    -0.20600018
O     19.00000000     0.00000000     0.00000000
H     18.65571345    -0.89482011    -0.07108941
H     18.25255017     0.50193351     0.33715200
O     22.80000000     0.00000000     0.00000000
H     23.59512597    -0.09602828     0.53183007
H     22.13333359    -0.47364061     0.50548040
O     26.60000000     0.00000000     0.00000000
H     26.53171057    -0.16655905     0.94439642
H     27.44679492    -0.38932765    -0.23590740
O     30.40000000     0.00000000     0.00000000
H     30.56433073     0.87233631     0.36920826
H     29.62603418     0.13316259    -0.55455801
O     34.20000000     0.00000000     0.00000000
H     34.06061571    -0.95123419     0.00393686
H     35.15738393     0.08660677     0.01432593
O     38.00000000     0.00000000     0.00000000
H     38.07895852     0.76606900     0.57549440
H     37.08699483    -0.27677802     0.11876638
O     41.80000000     0.00000000     0.00000000
H     42.18047251    -0.25675221     0.84475377
H     42.52396115    -0.12624722    -0.61986438
O     45.60000000     0.00000000     0.00000000
H     45.04319539     0.76731095     0.15966366
H     46.05090405     0.21682287    -0.82095270
O     49.40000000     0.00000000     0.00000000
H     48.66641461    -0.58878903    -0.19867036
H     49.04189795     0.87368137    -0.18092467
O     53.20000000     0.00000000     0.00000000
H     53.68772516    -0.74994393     0.35213382
H     52.30500088    -0.33835262    -0.09372320
O     57.00000000     0.00000000     0.00000000
H     57.80130391     0.17042356     0.50314791
H     57.31856161    -0.46561516    -0.77846707
O     60.80000000     0.00000000     0.00000000
H     60.16293211     0.67720864    -0.24458724
H     60.96511936    -0.46191502    -0.82683739
O     64.60000000     0.00000000     0.00000000
H     65.27735388    -0.40976309    -0.54550517
H     64.76862505     0.94099370    -0.10191370
O     68.40000000     0.00000000     0.00000000
H     67.47933788     0.27542606     0.02849054
H     68.34660267    -0.95967517    -0.02150018
O     72.20000000     0.00000000     0.00000000
H     73.15093517    -0.08313340     0.11446003
H     72.11249167     0.70964037    -0.64268406
O     76.00000000     0.00000000     0.00000000
H     75.39004429     0.39594423    -0.62886577
H     76.55482931    -0.56163796    -0.54865034
O     79.80000000     0.00000000     0.00000000
H     79.28577579    -0.02027494    -0.81206671
H     79.82047113     0.93339626     0.22943915
O     83.60000000     0.00000000     0.00000000
H     83.59040312    -0.94630804    -0.16940763
H     82.69685217     0.18881703     0.27011497
O     87.40000000     0.00000000     0.00000000
H     88.35534431    -0.03643873    -0.10138756
H     87.10748697    -0.85823213    -0.31963058
O     91.20000000     0.00000000     0.00000000
H     91.08554604     0.53748769    -0.78885819
H     92.05819679    -0.41269450    -0.13217969
O     95.00000000     0.00000000     0.00000000
H     95.03317090     0.50220951    -0.81913080
H     94.64891344     0.63016202     0.63555016
O     98.80000000     0.00000000     0.00000000
H     98.28998014    -0.80955494    -0.09375766
H     99.52281266    -0.25600301     0.57990885
O    102.60000000     0.00000000     0.00000000
H    103.00666740     0.87054448    -0.03261735
H    101.65817565     0.19108618    -0.02725655
O    106.40000000     0.00000000     0.00000000
H    106.22335437    -0.68202959    -0.65415741
H    107.33446642    -0.11322549     0.19555680
O    110.20000000     0.00000000     0.00000000
H    109.88973593     0.73115192    -0.54170383
H    109.94379027     0.25598316     0.89057237
O    114.00000000     0.00000000     0.00000000
H    113.61688346    -0.84987866     0.23498499
H    113.68552247     0.58730144     0.69316006
O    117.80000000     0.00000000     0.00000000
H    118.55927591    -0.53085978     0.25686171
H    117.06797743    -0.62207461     0.03815871
O    121.60000000     0.00000000     0.00000000
H    122.20469400     0.67032351    -0.33060781
H    122.18287346    -0.71765406     0.26366862
O    125.40000000     0.00000000     0.00000000
H    124.76852696     0.71417086    -0.12446586
H    125.79058068     0.19260257     0.85711198
O    129.20000000     0.00000000     0.00000000
H    129.29699447    -0.71068090     0.64016771
H    129.39026011     0.79100527     0.51225162
O    133.00000000     0.00000000     0.00000000
H    132.41611823     0.51227307     0.56652302
H    132.49548689    -0.79864365    -0.17867515
O    136.80000000     0.00000000     0.00000000
H    137.60319611    -0.52714922    -0.03577248
H    137.12626042     0.90230982     0.06067199
O    140.60000000     0.00000000     0.00000000
H    139.77929899     0.45655252     0.20566867
H    140.57485528    -0.77428468     0.56933377
O    144.40000000     0.00000000     0.00000000
H    144.52373153    -0.32641769     0.89578567
H    144.32396708     0.95130873     0.11627833
O    148.20000000     0.00000000     0.00000000
H    148.26834793    -0.67497152     0.68119892
H    147.48407481    -0.31627976    -0.55830833
O    152.00000000     0.00000000     0.00000000
H    152.91690326     0.28717177     0.03332799
H    152.06338605    -0.92369726    -0.25895084
O    155.80000000     0.00000000     0.00000000
H    155.54200434     0.88379254     0.27683741
H    156.73699182    -0.03703840     0.21204822
O    159.60000000     0.00000000     0.00000000
H    159.17720309    -0.01547118     0.86330376
H    159.49196635     0.91133351    -0.28651340
O    163.40000000     0.00000000     0.00000000
H    162.91407257    -0.66044652     0.50197100
H    163.45969357    -0.38517758    -0.87884291
O    167.20000000     0.00000000     0.00000000
H    167.96435920     0.55464887    -0.18002669
H    166.48652331     0.44202617    -0.46888575
O    171.00000000     0.00000000     0.00000000
H    170.36201083    -0.71517111     0.07609247
H    171.84764494    -0.45355960     0.00846823
O    174.80000000     0.00000000     0.00000000
H    175.10294317     0.70806456     0.57546500
H    174.07256566     0.40035325    -0.48460964
O    178.60000000     0.00000000     0.00000000
H    178.30965159    -0.91029115     0.10657289
H    178.71402935     0.08939346    -0.95041889
O    182.40000000     0.00000000     0.00000000
H    183.18313550     0.00404865    -0.55764895
H    181.83687812    -0.66343166    -0.40870790
O    186.20000000     0.00000000     0.00000000
H    186.50422379     0.87898367    -0.24315747
H    187.01436851    -0.50390072     0.08472276
O    190.00000000     0.00000000     0.00000000
H    189.15416864     0.40260979     0.21625133
H    190.49909651     0.72266630    -0.39108318
O    193.80000000     0.00000000     0.00000000
H    193.55346696    -0.88039794    -0.29733967
H    193.53451802     0.56607801    -0.73031840
O    197.60000000     0.00000000     0.00000000
H    197.67446612     0.38456940    -0.87798128
H    196.85600607    -0.60340469    -0.08164424
O    201.40000000     0.00000000     0.00000000
H    201.89912617    -0.68444934    -0.45463406
H    202.08223018     0.55150436     0.39331270
O    205.20000000     0.00000000     0.00000000
H    204.58177486     0.73620909     0.00915471
H    204.63145574    -0.76932207    -0.09586939
O    209.00000000     0.00000000     0.00000000
H    209.51591239    -0.64063084    -0.49771126
H    209.29542198     0.84575810    -0.34886824
O    212.80000000     0.00000000     0.00000000
H    212.66657165    -0.05700803    -0.95038777
H    212.24782882    -0.70642499     0.34693038
O    216.60000000     0.00000000     0.00000000
H    217.37851269     0.40085553    -0.39689141
H    216.95675163    -0.49653103     0.74194014
O    220.40000000     0.00000000     0.00000000
H    219.84833625     0.78314068     0.08153364
H    221.28389818     0.32741749     0.18923994
O    224.20000000     0.00000000     0.00000000
H    223.46462986    -0.46740492    -0.40626760
H    223.92500881     0.92073008    -0.03042883
O    228.00000000     0.00000000     0.00000000
H    228.01265107    -0.62461761    -0.73074123
H    227.43309048    -0.42572125     0.64935735
O    231.80000000     0.00000000     0.00000000
H    232.71827738     0.27552834    -0.07169904
H    231.57298174     0.21034741     0.91022340
O    235.60000000     0.00000000     0.00000000
H    234.76050260    -0.26363856     0.38733549
H    236.19853405    -0.70618706     0.25951258
O    239.40000000     0.00000000     0.00000000
H    240.21227013     0.50204664    -0.11160811
H    238.72060462     0.67889378     0.04260416
O    243.20000000     0.00000000     0.00000000
H    242.61370405    -0.67772316    -0.34819296
H    243.70508811    -0.46451878     0.67334855
O    247.00000000     0.00000000     0.00000000
H    247.77921096     0.43585805     0.35657818
H    246.48990938    -0.22411346     0.78349900
O    250.80000000     0.00000000     0.00000000
H    250.67249361     0.60639737     0.73506075
H    251.73735707    -0.20951451     0.04189703
O    254.60000000     0.00000000     0.00000000
H    253.65563113     0.04285180     0.17498889
H    254.84049968     0.91702953    -0.15970820
O    258.40000000     0.00000000     0.00000000
H    258.29350904    -0.95510561    -0.02688697
H    257.59745961     0.30317823     0.43393759
O    262.20000000     0.00000000     0.00000000
H    262.87546643     0.17924045     0.66023323
H    261.64255888    -0.65954817     0.42254654
O    266.00000000     0.00000000     0.00000000
H    266.13827080    -0.29655452     0.90400584
H    266.89024102     0.04450021    -0.36025077
O    269.80000000     0.00000000     0.00000000
H    269.51063701     0.88259361     0.24816836
H    269.05467284    -0.34911945    -0.49688328
O    273.60000000     0.00000000     0.00000000
H    273.97730998    -0.88285765     0.04989504
H    274.36256424     0.57617585     0.10395736
O    277.40000000     0.00000000     0.00000000
H    277.11105597     0.60855355     0.68590370
H    276.73982735    -0.69838118     0.02693992
O    281.20000000     0.00000000     0.00000000
H    281.76380155     0.02664690     0.77827226
H    281.82013726     0.08712854    -0.72947128
O    285.00000000     0.00000000     0.00000000
H    284.21637926     0.55597362     0.03349357
H    285.49546750     0.35503303    -0.74347391
O    288.80000000     0.00000000     0.00000000
H    288.21753036    -0.75016263    -0.14924848
H    288.21663905     0.75872734    -0.09117443
O    292.60000000     0.00000000     0.00000000
H    293.21331487    -0.59005563     0.44717915
H    291.84263755    -0.56230771    -0.18574744
O    296.40000000     0.00000000     0.00000000
H    297.17425642     0.38822387     0.41725194
H    296.72172734    -0.26694755    -0.86574851
O    300.20000000     0.00000000     0.00000000
H    299.35963091     0.28876746    -0.36699199
H    300.60919270    -0.47918716    -0.72610671
O    304.00000000     0.00000000     0.00000000
H    304.82852984     0.05104169    -0.48499795
H    303.67761245     0.90567392    -0.01053483
O    307.80000000     0.00000000     0.00000000
H    306.87947908    -0.25196108     0.11596039
H    308.25075832    -0.84181299    -0.11161443
O    311.60000000     0.00000000     0.00000000
H    312.47394709     0.40014145     0.01983094
H    311.15265695     0.47286666    -0.70751062
O    315.40000000     0.00000000     0.00000000
H    314.80435230     0.16549115    -0.73627879
H    316.22096727    -0.25745940    -0.42897245
O    319.20000000     0.00000000     0.00000000
H    318.59192648    -0.13639432    -0.73207455
H    318.97643006     0.87984360     0.31651489
O    323.00000000     0.00000000     0.00000000
H    323.24168552    -0.92688948    -0.08218253
H    322.05546297    -0.02917993     0.17688498
O    326.80000000     0.00000000     0.00000000
H    327.71404649     0.22450287    -0.19597816
H    326.70162538    -0.88242806    -0.36869107
O    330.60000000     0.00000000     0.00000000
H    330.41246476     0.35470532    -0.87367307
H    331.55474919    -0.11282595    -0.00377473
O    334.40000000     0.00000000     0.00000000
H    334.20712971     0.61169333    -0.71618593
H    333.81912417     0.29289793     0.70787289
O    338.20000000     0.00000000     0.00000000
H    338.16086336    -0.96058915    -0.00517417
H    339.01408255     0.18889620     0.47526602
O    342.00000000     0.00000000     0.00000000
H    341.89608784     0.94756311    -0.12496549
H    341.10166740    -0.33537416    -0.06937349
O    345.80000000     0.00000000     0.00000000
H    346.04208283    -0.59390130    -0.71621722
H    346.64732118     0.32049274     0.32190243
O    349.60000000     0.00000000     0.00000000
H    348.93137777     0.54842043    -0.42008249
H    349.43851567     0.12889215     0.93893535
O    353.40000000     0.00000000     0.00000000
H    353.25936028    -0.89593189     0.31908695
H    352.83935819     0.53236504     0.57145270
O    357.20000000     0.00000000     0.00000000
H    358.08292029    -0.34432550     0.16180750
H    356.64880851    -0.78770141    -0.00209344
O    361.00000000     0.00000000     0.00000000
H    361.43791810     0.76856310    -0.37660120
H    361.72301192    -0.50541425     0.38223052
O    364.80000000     0.00000000     0.00000000
H    363.96221999     0.47157514     0.00561277
H    365.15480954     0.16232703     0.87866381
O    368.60000000     0.00000000     0.00000000
H    369.03604080    -0.48053867     0.70939479
H    368.45843043     0.87392222     0.37484392
O    372.40000000     0.00000000     0.00000000
H    371.56606350     0.12955622     0.46049437
H    372.39449546    -0.93705813    -0.21489933
O    376.20000000     0.00000000     0.00000000
H    377.15825582    -0.02178847    -0.07457217
H    376.00937557     0.92624059     0.17329354
O    380.00000000     0.00000000     0.00000000
H    379.09860846     0.02538354     0.33337506
H    380.43167322    -0.64362058     0.56894705
O    383.80000000     0.00000000     0.00000000
H    383.88152711    -0.17964328     0.94094186
H    383.34499571     0.84644005    -0.02828948
O    387.60000000     0.00000000     0.00000000
H    387.91841975    -0.71480929     0.55852171
H    386.96968644    -0.43375652    -0.58210829
O    391.40000000     0.00000000     0.00000000
H    392.21533420     0.50941947    -0.00345152
H    391.69850681    -0.90231028    -0.14498205
O    395.20000000     0.00000000     0.00000000
H    394.73215901     0.74047509     0.39637282
H    396.12224055     0.18469934     0.19911927
O    399.00000000     0.00000000     0.00000000
H    398.61632976     0.00261419     0.88152157
H    398.58718534     0.75618335    -0.42668578
O    402.80000000     0.00000000     0.00000000
H    402.59415141    -0.86570698     0.36396118
H    403.13046655    -0.19951521    -0.88049730
O    406.60000000     0.00000000     0.00000000
H    406.95149639     0.86918689    -0.21273082
H    405.70361622     0.02949668    -0.34628892
O    410.40000000     0.00000000     0.00000000
H    410.23258074    -0.92760601     0.18922959
H    411.35963197     0.05759425    -0.00890746
O    414.20000000     0.00000000     0.00000000
H    414.03180160     0.75449362     0.57161056
H    413.45847649     0.01220669    -0.61178741
O    418.00000000     0.00000000     0.00000000
H    418.09680027    -0.95574862    -0.03826542
H    417.94482284     0.25719588    -0.92471386
O    421.80000000     0.00000000     0.00000000
H    422.55430941     0.14582330    -0.57796440
H    421.46887726    -0.85945063    -0.27566701
O    425.60000000     0.00000000     0.00000000
H    425.67788883     0.94949481    -0.12916228
H    426.51325672    -0.29335227     0.06478093
O    429.40000000     0.00000000     0.00000000
H    428.47954608     0.19274906     0.19975572
H    429.68577095     0.76734123    -0.50379793
O    433.20000000     0.00000000     0.00000000
H    433.29609270    -0.85070312    -0.43744754
H    432.81388729     0.55957389    -0.67976760
O    437.00000000     0.00000000     0.00000000
H    436.75246071     0.30862406    -0.87622226
H    436.59083783    -0.86817881     0.05605204
O    440.80000000     0.00000000     0.00000000
H    441.62427676    -0.36649288    -0.33247670
H    441.06328259     0.84936459     0.36544771
O    444.60000000     0.00000000     0.00000000
H    443.68794175     0.30380979    -0.01180348
H    444.52684425    -0.93759318    -0.19964274
O    448.40000000     0.00000000     0.00000000
H    449.07106320    -0.28988057    -0.62444647
H    448.20351480     0.89774871    -0.28236638
O    452.20000000     0.00000000     0.00000000
H    452.16489867    -0.27239495    -0.92133536
H    451.94024794    -0.79244710     0.47837895
O    456.00000000     0.00000000     0.00000000
H    456.63812967     0.66859426    -0.26469265
H    456.45499913    -0.48103468     0.69704475
O    459.80000000     0.00000000     0.00000000
H    459.07448667     0.62812772     0.05810284
H    460.58231688     0.55211476     0.08625284
O    463.60000000     0.00000000     0.00000000
H    463.04313440    -0.58801065    -0.51810630
H    463.08946797     0.81356981     0.04184706
O    467.40000000     0.00000000     0.00000000
H    467.52922717    -0.67037585    -0.67689476
H    467.10925399    -0.50577600     0.76416448
O    471.20000000     0.00000000     0.00000000
H    471.90575216     0.64961698     0.06481997
H    470.74193618     0.08154660     0.84131899
O    475.00000000     0.00000000     0.00000000
H    474.44049284    -0.69597617     0.35617252
H    475.89074988    -0.32805022     0.15243903
O    478.80000000     0.00000000     0.00000000
H    479.21409149     0.84083540    -0.21404212
H    477.87337254     0.22899005     0.11495683
O    482.60000000     0.00000000     0.00000000
H    482.44958397    -0.90781328    -0.27846011
H    483.17225816    -0.09239959     0.76698949
O    486.40000000     0.00000000     0.00000000
H    486.94598245     0.62406811     0.48655124
H    486.01456736    -0.54683738     0.69043503
O    490.20000000     0.00000000     0.00000000
H    489.97088445     0.63219675     0.68711229
H    491.15589331     0.07792091    -0.06697963
O    494.00000000     0.00000000     0.00000000
H    493.06323064    -0.20324666     0.07378289
H    494.01586200     0.95745381    -0.08556023
O    497.80000000     0.00000000     0.00000000
H    497.95395225    -0.94775357     0.04849575
H    496.99408652     0.12283057     0.50961366
O    501.60000000     0.00000000     0.00000000
H    502.04774924     0.35479552     0.77325980
H    501.23945769    -0.83459013     0.31266359
O    505.40000000     0.00000000     0.00000000
H    505.80538604    -0.25929330     0.83229748
H    506.10856297     0.45690711    -0.46202206
O    509.20000000     0.00000000     0.00000000
H    508.49621427     0.63910555     0.14324703
H    508.74900579    -0.74157731    -0.41346980
O    513.00000000     0.00000000     0.00000000
H    513.77284804    -0.55797598     0.12513459
H    513.33284363     0.88581078     0.16983622
O    516.80000000     0.00000000     0.00000000
H    516.31464900     0.29040483     0.77742485
H    516.54961722    -0.92397420    -0.08871361
O    520.60000000     0.00000000     0.00000000
H    521.16593331     0.37151703     0.68263060
H    521.07831575     0.18483319    -0.81322856
O    524.40000000     0.00000000     0.00000000
H    523.48963503     0.30033951    -0.07295036
H    524.86707913     0.54121210    -0.64281919
O    528.20000000     0.00000000     0.00000000
H    527.80978377    -0.87564854    -0.07253197
H    527.43955644     0.58758065    -0.02765016
O    532.00000000     0.00000000     0.00000000
H    532.68540987    -0.42862301     0.52037063
H    531.45358032    -0.73259625    -0.29835922
O    535.80000000     0.00000000     0.00000000
H    536.45911237     0.62994666     0.30500499
H    536.02770323    -0.13314441    -0.92450731
O    539.60000000     0.00000000     0.00000000
H    538.77523676    -0.16366312    -0.46612224
H    540.26945400    -0.33113966    -0.60536586
O    543.40000000     0.00000000     0.00000000
H    544.09864512     0.52599059    -0.39939812
H    542.66030993     0.61190243     0.05219170
O    547.20000000     0.00000000     0.00000000
H    546.56427786    -0.69864446     0.17900627
H    548.00421260    -0.47908198    -0.21911758
O    551.00000000     0.00000000     0.00000000
H    551.58011487     0.76037048    -0.09794607
H    550.39413287     0.08290700    -0.74184999
O    554.80000000     0.00000000     0.00000000
H    554.29429518     0.02666146    -0.81721586
H    555.70687499     0.12650007    -0.29302805
O    558.60000000     0.00000000     0.00000000
H    557.94927865    -0.32314402    -0.62962658
H    558.18276135     0.78189081     0.37262397
O    562.40000000     0.00000000     0.00000000
H    562.87046676    -0.83813902    -0.02177089
H    561.47763162    -0.26211008     0.06946108
O    566.20000000     0.00000000     0.00000000
H    566.98322681     0.46313628    -0.31040379
H    566.28955310    -0.87598214    -0.38590867
O    570.00000000     0.00000000     0.00000000
H    569.85416028     0.19797714    -0.92942229
H    570.92286972     0.23214019     0.13679314
O    573.80000000     0.00000000     0.00000000
H    573.30442484     0.57082597    -0.59401425
H    573.20629972    -0.11581770     0.74725912
O    577.60000000     0.00000000     0.00000000
H    578.05902501    -0.84299564     0.05426195
H    578.23557619     0.62519923     0.35980382
O    581.40000000     0.00000000     0.00000000
H    580.83528007     0.74207706    -0.23388672
H    580.81623055    -0.75981139    -0.07867551
O    585.20000000     0.00000000     0.00000000
H    585.73037027    -0.29066058    -0.74733778
H    585.77588559     0.62006280     0.45625418
O    589.00000000     0.00000000     0.00000000
H    588.10950154     0.22626482    -0.28303124
H    588.97073295     0.12330017     0.95301126
O    592.80000000     0.00000000     0.00000000
H    592.87396876    -0.88349559     0.37182541
H    592.02903012     0.36597717     0.44266931
O    596.60000000     0.00000000     0.00000000
H    597.55241154    -0.11978264     0.05342595
H    596.26080562    -0.89953360    -0.00874244
O    600.40000000     0.00000000     0.00000000
H    600.66428520     0.83787371    -0.39039843
H    601.17363399    -0.26632565     0.50482774
O    604.20000000     0.00000000     0.00000000
H    603.25987360     0.13729871     0.14697406
H    604.58788410     0.15807396     0.86536034
O    608.00000000     0.00000000     0.00000000
H    608.59835761    -0.10320714     0.74539011
H    607.48082038     0.77442998     0.23452226
O    611.80000000     0.00000000     0.00000000
H    610.97125594    -0.34461377     0.34454983
H    612.29962514    -0.79223141    -0.21687340
O    615.60000000     0.00000000     0.00000000
H    616.42389624     0.48891242    -0.08030931
H    614.96996401     0.66739860     0.28622321
O    619.40000000     0.00000000     0.00000000
H    618.63659751    -0.34974272     0.46817371
H    620.14409047    -0.29255947     0.53388041
O    623.20000000     0.00000000     0.00000000
H    623.16215731    -0.13144601     0.95161959
H    622.47641268     0.60938771    -0.17134170
O    627.00000000     0.00000000     0.00000000
H    627.57587235    -0.63876692     0.42969503
H    626.44939932    -0.54290429    -0.57130008
O    630.80000000     0.00000000     0.00000000
H    631.46411685     0.69512347    -0.00649046
H    631.32023375    -0.80775568    -0.03431556
O    634.60000000     0.00000000     0.00000000
H    633.99616783     0.53880209     0.51900769
H    635.45541372     0.41156665     0.15221767
O    638.40000000     0.00000000     0.00000000
H    637.98045149     0.01980522     0.86479868
H    637.78048699     0.47522782    -0.56093859
O    642.20000000     0.00000000     0.00000000
H    642.38585530    -0.91628775     0.22397438
H    642.63809922     0.11713061    -0.84772605
O    646.00000000     0.00000000     0.00000000
H    645.82794338     0.92200775    -0.21115913
H    645.17713332    -0.44041184    -0.23068985
O    649.80000000     0.00000000     0.00000000
H    650.13502674    -0.84912057     0.30173050
H    650.58996240     0.54473503    -0.05927150
O    653.60000000     0.00000000     0.00000000
H    653.01347361     0.54413425     0.53309912
H    653.04143148    -0.28445202    -0.72895694
O    657.40000000     0.00000000     0.00000000
H    657.83164161    -0.83984541    -0.18065206
H    657.09445553     0.28605436    -0.86550878
O    661.20000000     0.00000000     0.00000000
H    661.92665275     0.28007957    -0.56375631
H    661.14923290    -0.94770375    -0.15352610
O    665.00000000     0.00000000     0.00000000
H    664.83691940     0.94726872    -0.01940742
H    665.95928733    -0.06236711     0.01296624
O    668.80000000     0.00000000     0.00000000
H    667.85128629    -0.04365540     0.14942043
H    668.89832206     0.74240518    -0.60287419
O    672.60000000     0.00000000     0.00000000
H    672.99371168    -0.66601024    -0.57071134
H    672.04210465     0.50610472    -0.59741171
O    676.40000000     0.00000000     0.00000000
H    675.93543298     0.04981985    -0.84022939
H    676.43985619    -0.94378530     0.17880366
O    680.20000000     0.00000000     0.00000000
H    681.13094796     0.09999858    -0.21823413
H    679.94620308     0.87500102     0.30700212
O    684.00000000     0.00000000     0.00000000
H    683.06416797    -0.21027881    -0.06550714
H    684.43249418    -0.80940063    -0.28654731
O    687.80000000     0.00000000     0.00000000
H    688.41153285     0.04811809    -0.74027170
H    687.16659646     0.69883021    -0.18634981
O    691.60000000     0.00000000     0.00000000
H    691.78805495    -0.38847141    -0.85907815
H    691.58589871    -0.75821023     0.59093854
O    695.40000000     0.00000000     0.00000000
H    695.81383277     0.85569658    -0.14427669
H    695.99049080    -0.43264990     0.62323723
O    699.20000000     0.00000000     0.00000000
H    698.34151060     0.43275396     0.00314900
H    699.82121730     0.73373637     0.00315862
O    703.00000000     0.00000000     0.00000000
H    702.62253055    -0.63485470    -0.61543991
H    702.28571596     0.62785206     0.14103209
O    706.80000000     0.00000000     0.00000000
H    707.11340553    -0.68994998    -0.59163837
H    706.76964168    -0.43554876     0.85654282
O    710.60000000     0.00000000     0.00000000
H    710.91523625     0.88909208     0.18555686
H    710.02531289    -0.19457041     0.74576608
O    714.40000000     0.00000000     0.00000000
H    714.31245367    -0.91086309     0.29487969
H    715.34410004     0.16824344     0.06825844
O    718.20000000     0.00000000     0.00000000
H    718.09741911     0.90801548    -0.29878924
H    717.30171719    -0.26950541     0.21152963
O    722.00000000     0.00000000     0.00000000
H    722.32696051    -0.88605488    -0.17970403
H    722.41773387     0.22826043     0.83527573
O    725.80000000     0.00000000     0.00000000
H    726.11149792     0.68631323     0.59685271
H    725.69079391    -0.76371886     0.57367020
O    729.60000000     0.00000000     0.00000000
H    729.22239695     0.63924579     0.61079515
H    730.48992403     0.33141934    -0.14995467
O    733.40000000     0.00000000     0.00000000
H    732.54128280    -0.43226016    -0.00677383
H    733.18010018     0.93585901     0.01009638
O    737.20000000     0.00000000     0.00000000
H    737.61529968    -0.85396413     0.15020453
H    736.41741407    -0.02983364     0.55763713
O    741.00000000     0.00000000     0.00000000
H    741.17962121     0.38342917     0.86313860
H    740.93078484    -0.94135953     0.18259641
O    744.80000000     0.00000000     0.00000000
H    745.41887769    -0.04111608     0.73456779
H    745.13459156     0.72530988    -0.53503647
O    748.60000000     0.00000000     0.00000000
H    747.66095645     0.19660962     0.06190171
H    748.61885215    -0.90937355    -0.31140696
O    752.40000000     0.00000000     0.00000000
H    753.33093245    -0.08666971     0.22392652
H    752.20411396     0.91836219     0.20622682
O    756.20000000     0.00000000     0.00000000
H    755.74167170    -0.06056860     0.84294518
H    756.38599230    -0.91704508    -0.22073774
O    760.00000000     0.00000000     0.00000000
H    760.38978553     0.67399721     0.56399021
H    760.37290591     0.18869927    -0.86580814
O    763.80000000     0.00000000     0.00000000
H    762.85183477     0.04355083    -0.15289209
H    764.14585431     0.72610357    -0.52673367
O    767.60000000     0.00000000     0.00000000
H    767.43648294    -0.94706368     0.02495046
H    766.71707208     0.38040152     0.00478860
O    771.40000000     0.00000000     0.00000000
H    772.12437638    -0.28275907     0.56534602
H    771.11470220    -0.81457086    -0.42352030
O    775.20000000     0.00000000     0.00000000
H    775.62798164     0.84325204     0.17334266
H    775.29590722    -0.10919786    -0.95035130
O    779.00000000     0.00000000     0.00000000
H    778.42438287    -0.55287970    -0.53598406
H    779.83674288    -0.02242347    -0.47291490
O    782.80000000     0.00000000     0.00000000
H    783.12225814     0.85606689    -0.29595462
H    781.85147899     0.13348032     0.08234598
O    786.60000000     0.00000000     0.00000000
H    786.44312796    -0.92449868     0.21209271
H    787.50095355     0.00354759    -0.33549975
O    790.40000000     0.00000000     0.00000000
H    790.57642523     0.91634048    -0.23126655
H    789.88137688    -0.32296198    -0.74230423
O    794.20000000     0.00000000     0.00000000
H    793.78386865    -0.01423294    -0.86655760
H    795.01317376     0.49058292    -0.14955535
O    798.00000000     0.00000000     0.00000000
H    797.39357385    -0.54201004    -0.51260356
H    797.42821237     0.66441415     0.39484516
O    801.80000000     0.00000000     0.00000000
H    802.46371225    -0.69550298     0.00718458
H    800.96963926    -0.48261528    -0.04328390
O    805.60000000     0.00000000     0.00000000
H    806.17186464     0.63775066    -0.43650302
H    805.88047453    -0.84233254    -0.36891719
O    809.40000000     0.00000000     0.00000000
H    809.37090045     0.13137053    -0.95193748
H    810.13493099     0.55271991     0.28047656
O    813.20000000     0.00000000     0.00000000
H    812.42957497     0.34378853    -0.46102569
H    812.82251714    -0.46533672     0.75183668
O    817.00000000     0.00000000     0.00000000
H    817.83140532    -0.47593762     0.08086124
H    817.23250881     0.90075057     0.24264795
O    820.80000000     0.00000000     0.00000000
H    819.96843776     0.33128748    -0.35077458
H    820.70178665    -0.95485303    -0.05384976
O    824.60000000     0.00000000     0.00000000
H    825.19712938     0.11687179    -0.74435707
H    824.83179166     0.72331408     0.58938895
O    828.40000000     0.00000000     0.00000000
H    827.45965803    -0.14360598    -0.13937095
H    828.45634232     0.22906295     0.93201162
O    832.20000000     0.00000000     0.00000000
H    832.46222572    -0.83846395     0.39051995
H    831.30044167     0.12322084     0.31607182
O    836.00000000     0.00000000     0.00000000
H    836.95213619     0.11918568    -0.05934142
H    835.89412344    -0.95537394     0.01845942
O    839.80000000     0.00000000     0.00000000
H    839.87553453     0.88418022    -0.36987814
H    840.53145715    -0.04624227     0.62219133
O    843.60000000     0.00000000     0.00000000
H    842.71369928    -0.23315514     0.29051621
H    844.05121716     0.22884723     0.81750962
O    847.40000000     0.00000000     0.00000000
H    847.92440869     0.30328093     0.74652941
H    846.57044632     0.47541416     0.10055854
O    851.20000000     0.00000000     0.00000000
H    850.64543281    -0.75154995     0.22785492
H    852.05450893    -0.39965454    -0.18542033
O    855.00000000     0.00000000     0.00000000
H    855.44628325     0.84995611    -0.05192146
H    854.14859953     0.21702045     0.39026828
O    858.80000000     0.00000000     0.00000000
H    858.31286012    -0.57096822     0.60081611
H    859.62506399     0.16383822     0.46552810
O    862.60000000     0.00000000     0.00000000
H    862.44675625    -0.20237183     0.92728203
H    861.74619769     0.32102848    -0.30373063
O    866.40000000     0.00000000     0.00000000
H    867.18605346    -0.46260050     0.30399127
H    865.94130568    -0.65980505    -0.52777531
O    870.20000000     0.00000000     0.00000000
H    870.67075723     0.83790909     0.02420635
H    870.90199024    -0.65375653     0.06404732
O    874.00000000     0.00000000     0.00000000
H    873.35390272     0.32096279     0.63547710
H    874.72057641     0.63215031     0.07379421
O    877.80000000     0.00000000     0.00000000
H    877.28853454    -0.02435395     0.81369523
H    877.13326244     0.12972579    -0.68038387
O    881.60000000     0.00000000     0.00000000
H    882.18917462    -0.75421098     0.09126354
H    881.92992008     0.44901113    -0.78347413
O    885.40000000     0.00000000     0.00000000
H    884.75264806     0.68855900    -0.17638573
H    884.90404055    -0.81314778    -0.13078557
O    889.20000000     0.00000000     0.00000000
H    889.90539714    -0.51296821     0.40443597
H    889.60115374     0.86255462    -0.13915875
O    893.00000000     0.00000000     0.00000000
H    892.17038456     0.15158365     0.46157403
H    892.72561704    -0.40503296    -0.82761842
O    896.80000000     0.00000000     0.00000000
H    897.45943287    -0.62642944    -0.31148741
H    896.25598188     0.15800829    -0.77676742
O    900.60000000     0.00000000     0.00000000
H    901.28858869     0.42740903    -0.51716255
H    900.82760205    -0.93270073    -0.05056303
O    904.40000000     0.00000000     0.00000000
H    904.01064582     0.87563596     0.07716833
H    905.34236450     0.17845074    -0.06629053
O    908.20000000     0.00000000     0.00000000
H    907.28969346    -0.30168900     0.06793894
H    908.16148645     0.67821639    -0.68031552
O    912.00000000     0.00000000     0.00000000
H    912.56565149    -0.36130927    -0.68831966
H    911.25301531     0.35775350    -0.48817646
O    915.80000000     0.00000000     0.00000000
H    915.31533944    -0.30261853    -0.77318570
H    916.28752064    -0.78028541     0.27886962
O    919.60000000     0.00000000     0.00000000
H    920.36507542     0.56958428    -0.12051272
H    918.89543045     0.61481747     0.22331859
O    923.40000000     0.00000000     0.00000000
H    922.70573557    -0.64831040    -0.14825815
H    924.18619489    -0.42924741    -0.34919079
O    927.20000000     0.00000000     0.00000000
H    927.59518803     0.26057029    -0.83679120
H    926.29799928     0.32595268    -0.06662964
O    931.00000000     0.00000000     0.00000000
H    931.45667981    -0.35525561    -0.76780659
H    931.14879336    -0.66566957     0.67752086
O    934.80000000     0.00000000     0.00000000
H    934.95294829     0.94814450    -0.04380387
H    935.53695702    -0.32211923     0.52671008
O    938.60000000     0.00000000     0.00000000
H    937.66365212     0.20335321    -0.07867709
H    939.02215172     0.86210919    -0.05334451
O    942.40000000     0.00000000     0.00000000
H    942.16877924    -0.62783100    -0.69040217
H    941.55160088     0.36964651     0.26051939
O    946.20000000     0.00000000     0.00000000
H    946.75044127    -0.62513893    -0.48011007
H    946.33205192    -0.24525983     0.92016296
O    950.00000000     0.00000000     0.00000000
H    949.83666969     0.90419755     0.28291334
H    949.50017184    -0.52620572     0.63053098
O    953.80000000     0.00000000     0.00000000
H    954.22805201    -0.83509215     0.20900367
H    954.52381874     0.63262171     0.01289044
O    957.60000000     0.00000000     0.00000000
H    957.02919631     0.68547117    -0.35861174
H    956.98115529    -0.66006550     0.32501494
O    961.40000000     0.00000000     0.00000000
H    962.11318220    -0.64210990    -0.05793086
H    961.51607458     0.38622011     0.87272600
O    965.20000000     0.00000000     0.00000000
H    965.33060953     0.66638497     0.68056020
H    965.43774769    -0.82061975     0.44085057
O    969.00000000     0.00000000     0.00000000
H    968.44140323     0.59128386     0.51248708
H    969.77063356     0.53816576    -0.20196902
O    972.80000000     0.00000000     0.00000000
H    972.07405426    -0.62743408    -0.06015994
H    972.35708352     0.84490866     0.11934948
O    976.60000000     0.00000000     0.00000000
H    977.23898403    -0.66505658     0.27145740
H    975.84632809    -0.16562115     0.57344420
O    980.40000000     0.00000000     0.00000000
H    980.35963449     0.26341754     0.92372712
H    980.68249915    -0.91806270     0.04055942
O    984.20000000     0.00000000     0.00000000
H    984.87261538     0.30003335     0.61794700
H    984.06899769     0.75914708    -0.57517307
O    988.00000000     0.00000000     0.00000000
H    987.09264191    -0.31763836     0.00985533
H    988.51186882    -0.78907170    -0.19911334
O    991.80000000     0.00000000     0.00000000
H    992.61697077     0.37690336     0.33881053
H    991.14090106     0.66781272     0.20953454
O    995.60000000     0.00000000     0.00000000
H    995.36351447    -0.31449069     0.87718878
H    996.12910619    -0.71721418    -0.36047250
O    999.40000000     0.00000000     0.00000000
H    999.49013396     0.85507162     0.43013761
H    999.74392998     0.15614029    -0.88409408
O   1003.20000000     0.00000000     0.00000000
H   1002.27973701    -0.19185743    -0.20148629
H   1003.34353292     0.86048923    -0.40403780
O   1007.00000000     0.00000000     0.00000000
H   1007.07745766    -0.94869512     0.13515855
H   1006.05044670     0.15041890     0.00355614
O   1010.80000000     0.00000000     0.00000000
H   1011.55381783    -0.14912724     0.57776267
H   1010.78139372    -0.78674169    -0.55225111
