102
cluster of 34 water molecules, AM1 monomer geometry, closest intermolecular contact 1.966 A
O      0.00000000     0.00000000     0.00000000
H      0.96140000     0.00000000     0.00000000
H     -0.22443437     0.93483644     0.00000000
O      3.80000000     0.00000000     0.00000000
H      2.95425679    -0.24655118    -0.38499468
H      4.01789094    -0.74926051     0.56162459
O      7.60000000     0.00000000     0.00000000
H      8.52942643     0.11883708     0.21525385
H      7.15791825     0.10783270     0.84689185
O     11.40000000     0.00000000     0.00000000
H     11.34090565     0.59822888     0.75027996
H     12.20723750    -0.49381138     0.16972891
O      0.00000000     3.80000000     0.00000000
H     -0.87401702     4.07744229     0.28880787
H      0.44183870     4.62863288    -0.20600018
O      3.80000000     3.80000000     0.00000000
H      3.45571345     2.90517989    -0.07108941
H      3.05255017     4.30193351     0.33715200
O      7.60000000     3.80000000     0.00000000
H      8.39512597     3.70397172     0.53183007
H      6.93333359     3.32635939     0.50548040
O     11.40000000     3.80000000     0.00000000
H     11.33171057     3.63344095     0.94439642
H     12.24679492     3.41067235    -0.23590740
O      0.00000000     7.60000000     0.00000000
H      0.16433073     8.47233631     0.36920826
H     -0.77396582     7.73316259    -0.55455801
O      3.80000000     7.60000000     0.00000000
H      3.66061571     6.64876581     0.00393686
H      4.75738393     7.68660677     0.01432593
O      7.60000000     7.60000000     0.00000000
H      7.67895852     8.36606900     0.57549440
H      6.68699483     7.32322198     0.11876638
O     11.40000000     7.60000000     0.00000000
H     11.78047251     7.34324779     0.84475377
H     12.12396115     7.47375278    -0.61986438
O      0.00000000    11.40000000     0.00000000
H     -0.55680461    12.16731095     0.15966366
H      0.45090405    11.61682287    -0.82095270
O      3.80000000    11.40000000     0.00000000
H      3.06641461    10.81121097    -0.19867036
H      3.44189795    12.27368137    -0.18092467
O      7.60000000    11.40000000     0.00000000
H      8.08772516    10.65005607     0.35213382
H      6.70500088    11.06164738    -0.09372320
O     11.40000000    11.40000000     0.00000000
H     12.20130391    11.57042356     0.50314791
H     11.71856161    10.93438484    -0.77846707
O      0.00000000     0.00000000     3.80000000
H     -0.63706789     0.67720864     3.55541276
H      0.16511936    -0.46191502     2.97316261
O      3.80000000     0.00000000     3.80000000
H      4.47735388    -0.40976309     3.25449483
H      3.96862505     0.94099370     3.69808630
O      7.60000000     0.00000000     3.80000000
H      6.67933788     0.27542606     3.82849054
H      7.54660267    -0.95967517     3.77849982
O     11.40000000     0.00000000     3.80000000
H     12.35093517    -0.08313340     3.91446003
H     11.31249167     0.70964037     3.15731594
O      0.00000000     3.80000000     3.80000000
H     -0.60995571     4.19594423     3.17113423
H      0.55482931     3.23836204     3.25134966
O      3.80000000     3.80000000     3.80000000
H      3.28577579     3.77972506     2.98793329
H      3.82047113     4.73339626     4.02943915
O      7.60000000     3.80000000     3.80000000
H      7.59040312     2.85369196     3.63059237
H      6.69685217     3.98881703     4.07011497
O     11.40000000     3.80000000     3.80000000
H     12.35534431     3.76356127     3.69861244
H     11.10748697     2.94176787     3.48036942
O      0.00000000     7.60000000     3.80000000
H     -0.11445396     8.13748769     3.01114181
H      0.85819679     7.18730550     3.66782031
O      3.80000000     7.60000000     3.80000000
H      3.83317090     8.10220951     2.98086920
H      3.44891344     8.23016202     4.43555016
O      7.60000000     7.60000000     3.80000000
H      7.08998014     6.79044506     3.70624234
H      8.32281266     7.34399699     4.37990885
O     11.40000000     7.60000000     3.80000000
H     11.80666740     8.47054448     3.76738265
H     10.45817565     7.79108618     3.77274345
O      0.00000000    11.40000000     3.80000000
H     -0.17664563    10.71797041     3.14584259
H      0.93446642    11.28677451     3.99555680
O      3.80000000    11.40000000     3.80000000
H      3.48973593    12.13115192     3.25829617
H      3.54379027    11.65598316     4.69057237
O      7.60000000    11.40000000     3.80000000
H      7.21688346    10.55012134     4.03498499
H      7.28552247    11.98730144     4.49316006
O     11.40000000    11.40000000     3.80000000
H     12.15927591    10.86914022     4.05686171
H     10.66797743    10.77792539     3.83815871
O      0.00000000     0.00000000     7.60000000
H      0.60469400     0.67032351     7.26939219
H      0.58287346    -0.71765406     7.86366862
O      3.80000000     0.00000000     7.60000000
H      3.16852696     0.71417086     7.47553414
H      4.19058068     0.19260257     8.45711198
