102
chain of 34 water molecules, AM1 monomer geometry, closest intermolecular contact 1.966 A
O      0.00000000     0.00000000     0.00000000
H      0.96140000     0.00000000     0.00000000
H     -0.22443437     0.93483644     0.00000000
O      3.80000000     0.00000000     0.00000000
H      2.95425679    -0.24655118    -0.38499468
H      4.01789094    -0.74926051     0.56162459
O      7.60000000     0.00000000     0.00000000
H      8.52942643     0.11883708     0.21525385
H      7.15791825     0.10783270     0.84689185
O     11.40000000     0.00000000     0.00000000
H     11.34090565     0.59822888     0.75027996
H     12.20723750    -0.49381138     0.16972891
O     15.20000000     0.00000000     0.00000000
H     14.32598298     0.27744229     0.28880787
H     15.64183870     0.82863288    -0.20600018
O     19.00000000     0.00000000     0.00000000
H     18.65571345    -0.89482011    -0.07108941
H     18.25255017     0.50193351     0.33715200
O     22.80000000     0.00000000     0.00000000
H     23.59512597    -0.09602828     0.53183007
H     22.13333359    -0.47364061     0.50548040
O     26.60000000     0.00000000     0.00000000
H     26.53171057    -0.16655905     0.94439642
H     27.44679492    -0.38932765    -0.23590740
O     30.40000000     0.00000000     0.00000000
H     30.56433073     0.87233631     0.36920826
H     29.62603418     0.13316259    -0.55455801
O     34.20000000     0.00000000     0.00000000
H     34.06061571    -0.95123419     0.00393686
H     35.15738393     0.08660677     0.01432593
O     38.00000000     0.00000000     0.00000000
H     38.07895852     0.76606900     0.57549440
H     37.08699483    -0.27677802     0.11876638
O     41.80000000     0.00000000     0.00000000
H     42.18047251    -0.25675221     0.84475377
H     42.52396115    -0.12624722    -0.61986438
O     45.60000000     0.00000000     0.00000000
H     45.04319539     0.76731095     0.15966366
H     46.05090405     0.21682287    -0.82095270
O     49.40000000     0.00000000     0.00000000
H     48.66641461    -0.58878903    -0.19867036
H     49.04189795     0.87368137    -0.18092467
O     53.20000000     0.00000000     0.00000000
H     53.68772516    -0.74994393     0.35213382
H     52.30500088    -0.33835262    -0.09372320
O     57.00000000     0.00000000     0.00000000
H     57.80130391     0.17042356     0.50314791
H     57.31856161    -0.46561516    -0.77846707
O     60.80000000     0.00000000     0.00000000
H     60.16293211     0.67720864    -0.24458724
H     60.96511936    -0.46191502    -0.82683739
O     64.60000000     0.00000000     0.00000000
H     65.27735388    -0.40976309    -0.54550517
H     64.76862505     0.94099370    -0.10191370
O     68.40000000     0.00000000     0.00000000
H     67.47933788     0.27542606     0.02849054
H     68.34660267    -0.95967517    -0.02150018
O     72.20000000     0.00000000     0.00000000
H     73.15093517    -0.08313340     0.11446003
H     72.11249167     0.70964037    -0.64268406
O     76.00000000     0.00000000     0.00000000
H     75.39004429     0.39594423    -0.62886577
H     76.55482931    -0.56163796    -0.54865034
O     79.80000000     0.00000000     0.00000000
H     79.28577579    -0.02027494    -0.81206671
H     79.82047113     0.93339626     0.22943915
O     83.60000000     0.00000000     0.00000000
H     83.59040312    -0.94630804    -0.16940763
H     82.69685217     0.18881703     0.27011497
O     87.40000000     0.00000000     0.00000000
H     88.35534431    -0.03643873    -0.10138756
H     87.10748697    -0.85823213    -0.31963058
O     91.20000000     0.00000000     0.00000000
H     91.08554604     0.53748769    -0.78885819
H     92.05819679    -0.41269450    -0.13217969
O     95.00000000     0.00000000     0.00000000
H     95.03317090     0.50220951    -0.81913080
H     94.64891344     0.63016202     0.63555016
O     98.80000000     0.00000000     0.00000000
H     98.28998014    -0.80955494    -0.09375766
H     99.52281266    -0.25600301     0.57990885
O    102.60000000     0.00000000     0.00000000
H    103.00666740     0.87054448    -0.03261735
H    101.65817565     0.19108618    -0.02725655
O    106.40000000     0.00000000     0.00000000
H    106.22335437    -0.68202959    -0.65415741
H    107.33446642    -0.11322549     0.19555680
O    110.20000000     0.00000000     0.00000000
H    109.88973593     0.73115192    -0.54170383
H    109.94379027     0.25598316     0.89057237
O    114.00000000     0.00000000     0.00000000
H    113.61688346    -0.84987866     0.23498499
H    113.68552247     0.58730144     0.69316006
O    117.80000000     0.00000000     0.00000000
H    118.55927591    -0.53085978     0.25686171
H    117.06797743    -0.62207461     0.03815871
O    121.60000000     0.00000000     0.00000000
H    122.20469400     0.67032351    -0.33060781
H    122.18287346    -0.71765406     0.26366862
O    125.40000000     0.00000000     0.00000000
H    124.76852696     0.71417086    -0.12446586
H    125.79058068     0.19260257     0.85711198
