399
cluster of 133 water molecules, AM1 monomer geometry, closest intermolecular contact 1.933 A
O      0.00000000     0.00000000     0.00000000
H      0.96140000     0.00000000     0.00000000
H     -0.22443437     0.93483644     0.00000000
O      3.80000000     0.00000000     0.00000000
H      2.95425679    -0.24655118    -0.38499468
H      4.01789094    -0.74926051     0.56162459
O      7.60000000     0.00000000     0.00000000
H      8.52942643     0.11883708     0.21525385
H      7.15791825     0.10783270     0.84689185
O     11.40000000     0.00000000     0.00000000
H     11.34090565     0.59822888     0.75027996
H     12.20723750    -0.49381138     0.16972891
O     15.20000000     0.00000000     0.00000000
H     14.32598298     0.27744229     0.28880787
H     15.64183870     0.82863288    -0.20600018
O     19.00000000     0.00000000     0.00000000
H     18.65571345    -0.89482011    -0.07108941
H     18.25255017     0.50193351     0.33715200
O      0.00000000     3.80000000     0.00000000
H      0.79512597     3.70397172     0.53183007
H     -0.66666641     3.32635939     0.50548040
O      3.80000000     3.80000000     0.00000000
H      3.73171057     3.63344095     0.94439642
H      4.64679492     3.41067235    -0.23590740
O      7.60000000     3.80000000     0.00000000
H      7.76433073     4.67233631     0.36920826
H      6.82603418     3.93316259    -0.55455801
O     11.40000000     3.80000000     0.00000000
H     11.26061571     2.84876581     0.00393686
H     12.35738393     3.88660677     0.01432593
O     15.20000000     3.80000000     0.00000000
H     15.27895852     4.56606900     0.57549440
H     14.28699483     3.52322198     0.11876638
O     19.00000000     3.80000000     0.00000000
H     19.38047251     3.54324779     0.84475377
H     19.72396115     3.67375278    -0.61986438
O      0.00000000     7.60000000     0.00000000
H     -0.55680461     8.36731095     0.15966366
H      0.45090405     7.81682287    -0.82095270
O      3.80000000     7.60000000     0.00000000
H      3.06641461     7.01121097    -0.19867036
H      3.44189795     8.47368137    -0.18092467
O      7.60000000     7.60000000     0.00000000
H      8.08772516     6.85005607     0.35213382
H      6.70500088     7.26164738    -0.09372320
O     11.40000000     7.60000000     0.00000000
H     12.20130391     7.77042356     0.50314791
H     11.71856161     7.13438484    -0.77846707
O     15.20000000     7.60000000     0.00000000
H     14.56293211     8.27720864    -0.24458724
H     15.36511936     7.13808498    -0.82683739
O     19.00000000     7.60000000     0.00000000
H     19.67735388     7.19023691    -0.54550517
H     19.16862505     8.54099370    -0.10191370
O      0.00000000    11.40000000     0.00000000
H     -0.92066212    11.67542606     0.02849054
H     -0.05339733    10.44032483    -0.02150018
O      3.80000000    11.40000000     0.00000000
H      4.75093517    11.31686660     0.11446003
H      3.71249167    12.10964037    -0.64268406
O      7.60000000    11.40000000     0.00000000
H      6.99004429    11.79594423    -0.62886577
H      8.15482931    10.83836204    -0.54865034
O     11.40000000    11.40000000     0.00000000
H     10.88577579    11.37972506    -0.81206671
H     11.42047113    12.33339626     0.22943915
O     15.20000000    11.40000000     0.00000000
H     15.19040312    10.45369196    -0.16940763
H     14.29685217    11.58881703     0.27011497
O     19.00000000    11.40000000     0.00000000
H     19.95534431    11.36356127    -0.10138756
H     18.70748697    10.54176787    -0.31963058
O      0.00000000    15.20000000     0.00000000
H     -0.11445396    15.73748769    -0.78885819
H      0.85819679    14.78730550    -0.13217969
O      3.80000000    15.20000000     0.00000000
H      3.83317090    15.70220951    -0.81913080
H      3.44891344    15.83016202     0.63555016
O      7.60000000    15.20000000     0.00000000
H      7.08998014    14.39044506    -0.09375766
H      8.32281266    14.94399699     0.57990885
O     11.40000000    15.20000000     0.00000000
H     11.80666740    16.07054448    -0.03261735
H     10.45817565    15.39108618    -0.02725655
O     15.20000000    15.20000000     0.00000000
H     15.02335437    14.51797041    -0.65415741
H     16.13446642    15.08677451     0.19555680
O     19.00000000    15.20000000     0.00000000
H     18.68973593    15.93115192    -0.54170383
H     18.74379027    15.45598316     0.89057237
O      0.00000000    19.00000000     0.00000000
H     -0.38311654    18.15012134     0.23498499
H     -0.31447753    19.58730144     0.69316006
O      3.80000000    19.00000000     0.00000000
H      4.55927591    18.46914022     0.25686171
H      3.06797743    18.37792539     0.03815871
O      7.60000000    19.00000000     0.00000000
H      8.20469400    19.67032351    -0.33060781
H      8.18287346    18.28234594     0.26366862
O     11.40000000    19.00000000     0.00000000
H     10.76852696    19.71417086    -0.12446586
H     11.79058068    19.19260257     0.85711198
O     15.20000000    19.00000000     0.00000000
H     15.29699447    18.28931910     0.64016771
H     15.39026011    19.79100527     0.51225162
O     19.00000000    19.00000000     0.00000000
H     18.41611823    19.51227307     0.56652302
H     18.49548689    18.20135635    -0.17867515
O      0.00000000     0.00000000     3.80000000
H      0.80319611    -0.52714922     3.76422752
H      0.32626042     0.90230982     3.86067199
O      3.80000000     0.00000000     3.80000000
H      2.97929899     0.45655252     4.00566867
H      3.77485528    -0.77428468     4.36933377
O      7.60000000     0.00000000     3.80000000
H      7.72373153    -0.32641769     4.69578567
H      7.52396708     0.95130873     3.91627833
O     11.40000000     0.00000000     3.80000000
H     11.46834793    -0.67497152     4.48119892
H     10.68407481    -0.31627976     3.24169167
O     15.20000000     0.00000000     3.80000000
H     16.11690326     0.28717177     3.83332799
H     15.26338605    -0.92369726     3.54104916
O     19.00000000     0.00000000     3.80000000
H     18.74200434     0.88379254     4.07683741
H     19.93699182    -0.03703840     4.01204822
O      0.00000000     3.80000000     3.80000000
H     -0.42279691     3.78452882     4.66330376
H     -0.10803365     4.71133351     3.51348660
O      3.80000000     3.80000000     3.80000000
H      3.31407257     3.13955348     4.30197100
H      3.85969357     3.41482242     2.92115709
O      7.60000000     3.80000000     3.80000000
H      8.36435920     4.35464887     3.61997331
H      6.88652331     4.24202617     3.33111425
O     11.40000000     3.80000000     3.80000000
H     10.76201083     3.08482889     3.87609247
H     12.24764494     3.34644040     3.80846823
O     15.20000000     3.80000000     3.80000000
H     15.50294317     4.50806456     4.37546500
H     14.47256566     4.20035325     3.31539036
O     19.00000000     3.80000000     3.80000000
H     18.70965159     2.88970885     3.90657289
H     19.11402935     3.88939346     2.84958111
O      0.00000000     7.60000000     3.80000000
H      0.78313550     7.60404865     3.24235105
H     -0.56312188     6.93656834     3.39129210
O      3.80000000     7.60000000     3.80000000
H      4.10422379     8.47898367     3.55684253
H      4.61436851     7.09609928     3.88472276
O      7.60000000     7.60000000     3.80000000
H      6.75416864     8.00260979     4.01625133
H      8.09909651     8.32266630     3.40891682
O     11.40000000     7.60000000     3.80000000
H     11.15346696     6.71960206     3.50266033
H     11.13451802     8.16607801     3.06968160
O     15.20000000     7.60000000     3.80000000
H     15.27446612     7.98456940     2.92201872
H     14.45600607     6.99659531     3.71835576
O     19.00000000     7.60000000     3.80000000
H     19.49912617     6.91555066     3.34536594
H     19.68223018     8.15150436     4.19331270
O      0.00000000    11.40000000     3.80000000
H     -0.61822514    12.13620909     3.80915471
H     -0.56854426    10.63067793     3.70413061
O      3.80000000    11.40000000     3.80000000
H      4.31591239    10.75936916     3.30228874
H      4.09542198    12.24575810     3.45113176
O      7.60000000    11.40000000     3.80000000
H      7.46657165    11.34299197     2.84961223
H      7.04782882    10.69357501     4.14693038
O     11.40000000    11.40000000     3.80000000
H     12.17851269    11.80085553     3.40310859
H     11.75675163    10.90346897     4.54194014
O     15.20000000    11.40000000     3.80000000
H     14.64833625    12.18314068     3.88153364
H     16.08389818    11.72741749     3.98923994
O     19.00000000    11.40000000     3.80000000
H     18.26462986    10.93259508     3.39373240
H     18.72500881    12.32073008     3.76957117
O      0.00000000    15.20000000     3.80000000
H      0.01265107    14.57538239     3.06925877
H     -0.56690952    14.77427875     4.44935735
O      3.80000000    15.20000000     3.80000000
H      4.71827738    15.47552834     3.72830096
H      3.57298174    15.41034741     4.71022340
O      7.60000000    15.20000000     3.80000000
H      6.76050260    14.93636144     4.18733549
H      8.19853405    14.49381294     4.05951258
O     11.40000000    15.20000000     3.80000000
H     12.21227013    15.70204664     3.68839189
H     10.72060462    15.87889378     3.84260416
O     15.20000000    15.20000000     3.80000000
H     14.61370405    14.52227684     3.45180704
H     15.70508811    14.73548122     4.47334855
O     19.00000000    15.20000000     3.80000000
H     19.77921096    15.63585805     4.15657818
H     18.48990938    14.97588654     4.58349900
O      0.00000000    19.00000000     3.80000000
H     -0.12750639    19.60639737     4.53506075
H      0.93735707    18.79048549     3.84189703
O      3.80000000    19.00000000     3.80000000
H      2.85563113    19.04285180     3.97498889
H      4.04049968    19.91702953     3.64029180
O      7.60000000    19.00000000     3.80000000
H      7.49350904    18.04489439     3.77311303
H      6.79745961    19.30317823     4.23393759
O     11.40000000    19.00000000     3.80000000
H     12.07546643    19.17924045     4.46023323
H     10.84255888    18.34045183     4.22254654
O     15.20000000    19.00000000     3.80000000
H     15.33827080    18.70344548     4.70400584
H     16.09024102    19.04450021     3.43974923
O     19.00000000    19.00000000     3.80000000
H     18.71063701    19.88259361     4.04816836
H     18.25467284    18.65088055     3.30311672
O      0.00000000     0.00000000     7.60000000
H      0.37730998    -0.88285765     7.64989504
H      0.76256424     0.57617585     7.70395736
O      3.80000000     0.00000000     7.60000000
H      3.51105597     0.60855355     8.28590370
H      3.13982735    -0.69838118     7.62693992
O      7.60000000     0.00000000     7.60000000
H      8.16380155     0.02664690     8.37827226
H      8.22013726     0.08712854     6.87052872
O     11.40000000     0.00000000     7.60000000
H     10.61637926     0.55597362     7.63349357
H     11.89546750     0.35503303     6.85652609
O     15.20000000     0.00000000     7.60000000
H     14.61753036    -0.75016263     7.45075152
H     14.61663905     0.75872734     7.50882557
O     19.00000000     0.00000000     7.60000000
H     19.61331487    -0.59005563     8.04717915
H     18.24263755    -0.56230771     7.41425256
O      0.00000000     3.80000000     7.60000000
H      0.77425642     4.18822387     8.01725194
H      0.32172734     3.53305245     6.73425149
O      3.80000000     3.80000000     7.60000000
H      2.95963091     4.08876746     7.23300801
H      4.20919270     3.32081284     6.87389329
O      7.60000000     3.80000000     7.60000000
H      8.42852984     3.85104169     7.11500205
H      7.27761245     4.70567392     7.58946517
O     11.40000000     3.80000000     7.60000000
H     10.47947908     3.54803892     7.71596039
H     11.85075832     2.95818701     7.48838557
O     15.20000000     3.80000000     7.60000000
H     16.07394709     4.20014145     7.61983094
H     14.75265695     4.27286666     6.89248938
O     19.00000000     3.80000000     7.60000000
H     18.40435230     3.96549115     6.86372121
H     19.82096727     3.54254060     7.17102755
O      0.00000000     7.60000000     7.60000000
H     -0.60807352     7.46360568     6.86792545
H     -0.22356994     8.47984360     7.91651489
O      3.80000000     7.60000000     7.60000000
H      4.04168552     6.67311052     7.51781747
H      2.85546297     7.57082007     7.77688498
O      7.60000000     7.60000000     7.60000000
H      8.51404649     7.82450287     7.40402184
H      7.50162538     6.71757194     7.23130893
O     11.40000000     7.60000000     7.60000000
H     11.21246476     7.95470532     6.72632693
H     12.35474919     7.48717405     7.59622527
O     15.20000000     7.60000000     7.60000000
H     15.00712971     8.21169333     6.88381407
H     14.61912417     7.89289793     8.30787289
O     19.00000000     7.60000000     7.60000000
H     18.96086336     6.63941085     7.59482583
H     19.81408255     7.78889620     8.07526602
O      0.00000000    11.40000000     7.60000000
H     -0.10391216    12.34756311     7.47503451
H     -0.89833260    11.06462584     7.53062651
O      3.80000000    11.40000000     7.60000000
H      4.04208283    10.80609870     6.88378278
H      4.64732118    11.72049274     7.92190243
O      7.60000000    11.40000000     7.60000000
H      6.93137777    11.94842043     7.17991751
H      7.43851567    11.52889215     8.53893535
O     11.40000000    11.40000000     7.60000000
H     11.25936028    10.50406811     7.91908695
H     10.83935819    11.93236504     8.17145270
O     15.20000000    11.40000000     7.60000000
H     16.08292029    11.05567450     7.76180750
H     14.64880851    10.61229859     7.59790656
O     19.00000000    11.40000000     7.60000000
H     19.43791810    12.16856310     7.22339880
H     19.72301192    10.89458575     7.98223052
O      0.00000000    15.20000000     7.60000000
H     -0.83778001    15.67157514     7.60561277
H      0.35480954    15.36232703     8.47866381
O      3.80000000    15.20000000     7.60000000
H      4.23604080    14.71946133     8.30939479
H      3.65843043    16.07392222     7.97484392
O      7.60000000    15.20000000     7.60000000
H      6.76606350    15.32955622     8.06049437
H      7.59449546    14.26294187     7.38510067
O     11.40000000    15.20000000     7.60000000
H     12.35825582    15.17821153     7.52542783
H     11.20937557    16.12624059     7.77329354
O     15.20000000    15.20000000     7.60000000
H     14.29860846    15.22538354     7.93337506
H     15.63167322    14.55637942     8.16894705
O     19.00000000    15.20000000     7.60000000
H     19.08152711    15.02035672     8.54094186
H     18.54499571    16.04644005     7.57171052
O      0.00000000    19.00000000     7.60000000
H      0.31841975    18.28519071     8.15852171
H     -0.63031356    18.56624348     7.01789171
O      3.80000000    19.00000000     7.60000000
H      4.61533420    19.50941947     7.59654848
H      4.09850681    18.09768972     7.45501795
O      7.60000000    19.00000000     7.60000000
H      7.13215901    19.74047509     7.99637282
H      8.52224055    19.18469934     7.79911927
O     11.40000000    19.00000000     7.60000000
H     11.01632976    19.00261419     8.48152157
H     10.98718534    19.75618335     7.17331422
O     15.20000000    19.00000000     7.60000000
H     14.99415141    18.13429302     7.96396118
H     15.53046655    18.80048479     6.71950270
O     19.00000000    19.00000000     7.60000000
H     19.35149639    19.86918689     7.38726918
H     18.10361622    19.02949668     7.25371108
O      0.00000000     0.00000000    11.40000000
H     -0.16741926    -0.92760601    11.58922959
H      0.95963197     0.05759425    11.39109254
O      3.80000000     0.00000000    11.40000000
H      3.63180160     0.75449362    11.97161056
H      3.05847649     0.01220669    10.78821259
O      7.60000000     0.00000000    11.40000000
H      7.69680027    -0.95574862    11.36173458
H      7.54482284     0.25719588    10.47528614
O     11.40000000     0.00000000    11.40000000
H     12.15430941     0.14582330    10.82203560
H     11.06887726    -0.85945063    11.12433299
O     15.20000000     0.00000000    11.40000000
H     15.27788883     0.94949481    11.27083772
H     16.11325672    -0.29335227    11.46478093
O     19.00000000     0.00000000    11.40000000
H     18.07954608     0.19274906    11.59975572
H     19.28577095     0.76734123    10.89620207
O      0.00000000     3.80000000    11.40000000
H      0.09609270     2.94929688    10.96255246
H     -0.38611271     4.35957389    10.72023240
O      3.80000000     3.80000000    11.40000000
H      3.55246071     4.10862406    10.52377774
H      3.39083783     2.93182119    11.45605204
O      7.60000000     3.80000000    11.40000000
H      8.42427676     3.43350712    11.06752330
H      7.86328259     4.64936459    11.76544771
O     11.40000000     3.80000000    11.40000000
H     10.48794175     4.10380979    11.38819652
H     11.32684425     2.86240682    11.20035726
O     15.20000000     3.80000000    11.40000000
H     15.87106320     3.51011943    10.77555353
H     15.00351480     4.69774871    11.11763362
O     19.00000000     3.80000000    11.40000000
H     18.96489867     3.52760505    10.47866464
H     18.74024794     3.00755290    11.87837895
O      0.00000000     7.60000000    11.40000000
H      0.63812967     8.26859426    11.13530735
H      0.45499913     7.11896532    12.09704475
O      3.80000000     7.60000000    11.40000000
H      3.07448667     8.22812772    11.45810284
H      4.58231688     8.15211476    11.48625284
O      7.60000000     7.60000000    11.40000000
H      7.04313440     7.01198935    10.88189370
H      7.08946797     8.41356981    11.44184706
O     11.40000000     7.60000000    11.40000000
H     11.52922717     6.92962415    10.72310524
H     11.10925399     7.09422400    12.16416448
O     15.20000000     7.60000000    11.40000000
H     15.90575216     8.24961698    11.46481997
H     14.74193618     7.68154660    12.24131899
O     19.00000000     7.60000000    11.40000000
H     18.44049284     6.90402383    11.75617252
H     19.89074988     7.27194978    11.55243903
O      0.00000000    11.40000000    11.40000000
H      0.41409149    12.24083540    11.18595788
H     -0.92662746    11.62899005    11.51495683
O      3.80000000    11.40000000    11.40000000
H      3.64958397    10.49218672    11.12153989
H      4.37225816    11.30760041    12.16698949
O      7.60000000    11.40000000    11.40000000
H      8.14598245    12.02406811    11.88655124
H      7.21456736    10.85316262    12.09043503
O     11.40000000    11.40000000    11.40000000
H     11.17088445    12.03219675    12.08711229
H     12.35589331    11.47792091    11.33302037
O     15.20000000    11.40000000    11.40000000
H     14.26323064    11.19675334    11.47378289
H     15.21586200    12.35745381    11.31443977
O     19.00000000    11.40000000    11.40000000
H     19.15395225    10.45224643    11.44849575
H     18.19408652    11.52283057    11.90961366
O      0.00000000    15.20000000    11.40000000
H      0.44774924    15.55479552    12.17325980
H     -0.36054231    14.36540987    11.71266359
