801
cluster of 267 water molecules, AM1 monomer geometry, closest intermolecular contact 1.897 A
O      0.00000000     0.00000000     0.00000000
H      0.96140000     0.00000000     0.00000000
H     -0.22443437     0.93483644     0.00000000
O      3.80000000     0.00000000     0.00000000
H      2.95425679    -0.24655118    -0.38499468
H      4.01789094    -0.74926051     0.56162459
O      7.60000000     0.00000000     0.00000000
H      8.52942643     0.11883708     0.21525385
H      7.15791825     0.10783270     0.84689185
O     11.40000000     0.00000000     0.00000000
H     11.34090565     0.59822888     0.75027996
H     12.20723750    -0.49381138     0.16972891
O     15.20000000     0.00000000     0.00000000
H     14.32598298     0.27744229     0.28880787
H     15.64183870     0.82863288    -0.20600018
O     19.00000000     0.00000000     0.00000000
H     18.65571345    -0.89482011    -0.07108941
H     18.25255017     0.50193351     0.33715200
O     22.80000000     0.00000000     0.00000000
H     23.59512597    -0.09602828     0.53183007
H     22.13333359    -0.47364061     0.50548040
O      0.00000000     3.80000000     0.00000000
H     -0.06828943     3.63344095     0.94439642
H      0.84679492     3.41067235    -0.23590740
O      3.80000000     3.80000000     0.00000000
H      3.96433073     4.67233631     0.36920826
H      3.02603418     3.93316259    -0.55455801
O      7.60000000     3.80000000     0.00000000
H      7.46061571     2.84876581     0.00393686
H      8.55738393     3.88660677     0.01432593
O     11.40000000     3.80000000     0.00000000
H     11.47895852     4.56606900     0.57549440
H     10.48699483     3.52322198     0.11876638
O     15.20000000     3.80000000     0.00000000
H     15.58047251     3.54324779     0.84475377
H     15.92396115     3.67375278    -0.61986438
O     19.00000000     3.80000000     0.00000000
H     18.44319539     4.56731095     0.15966366
H     19.45090405     4.01682287    -0.82095270
O     22.80000000     3.80000000     0.00000000
H     22.06641461     3.21121097    -0.19867036
H     22.44189795     4.67368137    -0.18092467
O      0.00000000     7.60000000     0.00000000
H      0.48772516     6.85005607     0.35213382
H     -0.89499912     7.26164738    -0.09372320
O      3.80000000     7.60000000     0.00000000
H      4.60130391     7.77042356     0.50314791
H      4.11856161     7.13438484    -0.77846707
O      7.60000000     7.60000000     0.00000000
H      6.96293211     8.27720864    -0.24458724
H      7.76511936     7.13808498    -0.82683739
O     11.40000000     7.60000000     0.00000000
H     12.07735388     7.19023691    -0.54550517
H     11.56862505     8.54099370    -0.10191370
O     15.20000000     7.60000000     0.00000000
H     14.27933788     7.87542606     0.02849054
H     15.14660267     6.64032483    -0.02150018
O     19.00000000     7.60000000     0.00000000
H     19.95093517     7.51686660     0.11446003
H     18.91249167     8.30964037    -0.64268406
O     22.80000000     7.60000000     0.00000000
H     22.19004429     7.99594423    -0.62886577
H     23.35482931     7.03836204    -0.54865034
O      0.00000000    11.40000000     0.00000000
H     -0.51422421    11.37972506    -0.81206671
H      0.02047113    12.33339626     0.22943915
O      3.80000000    11.40000000     0.00000000
H      3.79040312    10.45369196    -0.16940763
H      2.89685217    11.58881703     0.27011497
O      7.60000000    11.40000000     0.00000000
H      8.55534431    11.36356127    -0.10138756
H      7.30748697    10.54176787    -0.31963058
O     11.40000000    11.40000000     0.00000000
H     11.28554604    11.93748769    -0.78885819
H     12.25819679    10.98730550    -0.13217969
O     15.20000000    11.40000000     0.00000000
H     15.23317090    11.90220951    -0.81913080
H     14.84891344    12.03016202     0.63555016
O     19.00000000    11.40000000     0.00000000
H     18.48998014    10.59044506    -0.09375766
H     19.72281266    11.14399699     0.57990885
O     22.80000000    11.40000000     0.00000000
H     23.20666740    12.27054448    -0.03261735
H     21.85817565    11.59108618    -0.02725655
O      0.00000000    15.20000000     0.00000000
H     -0.17664563    14.51797041    -0.65415741
H      0.93446642    15.08677451     0.19555680
O      3.80000000    15.20000000     0.00000000
H      3.48973593    15.93115192    -0.54170383
H      3.54379027    15.45598316     0.89057237
O      7.60000000    15.20000000     0.00000000
H      7.21688346    14.35012134     0.23498499
H      7.28552247    15.78730144     0.69316006
O     11.40000000    15.20000000     0.00000000
H     12.15927591    14.66914022     0.25686171
H     10.66797743    14.57792539     0.03815871
O     15.20000000    15.20000000     0.00000000
H     15.80469400    15.87032351    -0.33060781
H     15.78287346    14.48234594     0.26366862
O     19.00000000    15.20000000     0.00000000
H     18.36852696    15.91417086    -0.12446586
H     19.39058068    15.39260257     0.85711198
O     22.80000000    15.20000000     0.00000000
H     22.89699447    14.48931910     0.64016771
H     22.99026011    15.99100527     0.51225162
O      0.00000000    19.00000000     0.00000000
H     -0.58388177    19.51227307     0.56652302
H     -0.50451311    18.20135635    -0.17867515
O      3.80000000    19.00000000     0.00000000
H      4.60319611    18.47285078    -0.03577248
H      4.12626042    19.90230982     0.06067199
O      7.60000000    19.00000000     0.00000000
H      6.77929899    19.45655252     0.20566867
H      7.57485528    18.22571532     0.56933377
O     11.40000000    19.00000000     0.00000000
H     11.52373153    18.67358231     0.89578567
H     11.32396708    19.95130873     0.11627833
O     15.20000000    19.00000000     0.00000000
H     15.26834793    18.32502848     0.68119892
H     14.48407481    18.68372024    -0.55830833
O     19.00000000    19.00000000     0.00000000
H     19.91690326    19.28717177     0.03332799
H     19.06338605    18.07630274    -0.25895084
O     22.80000000    19.00000000     0.00000000
H     22.54200434    19.88379254     0.27683741
H     23.73699182    18.96296160     0.21204822
O      0.00000000    22.80000000     0.00000000
H     -0.42279691    22.78452882     0.86330376
H     -0.10803365    23.71133351    -0.28651340
O      3.80000000    22.80000000     0.00000000
H      3.31407257    22.13955348     0.50197100
H      3.85969357    22.41482242    -0.87884291
O      7.60000000    22.80000000     0.00000000
H      8.36435920    23.35464887    -0.18002669
H      6.88652331    23.24202617    -0.46888575
O     11.40000000    22.80000000     0.00000000
H     10.76201083    22.08482889     0.07609247
H     12.24764494    22.34644040     0.00846823
O     15.20000000    22.80000000     0.00000000
H     15.50294317    23.50806456     0.57546500
H     14.47256566    23.20035325    -0.48460964
O     19.00000000    22.80000000     0.00000000
H     18.70965159    21.88970885     0.10657289
H     19.11402935    22.88939346    -0.95041889
O     22.80000000    22.80000000     0.00000000
H     23.58313550    22.80404865    -0.55764895
H     22.23687812    22.13656834    -0.40870790
O      0.00000000     0.00000000     3.80000000
H      0.30422379     0.87898367     3.55684253
H      0.81436851    -0.50390072     3.88472276
O      3.80000000     0.00000000     3.80000000
H      2.95416864     0.40260979     4.01625133
H      4.29909651     0.72266630     3.40891682
O      7.60000000     0.00000000     3.80000000
H      7.35346696    -0.88039794     3.50266033
H      7.33451802     0.56607801     3.06968160
O     11.40000000     0.00000000     3.80000000
H     11.47446612     0.38456940     2.92201872
H     10.65600607    -0.60340469     3.71835576
O     15.20000000     0.00000000     3.80000000
H     15.69912617    -0.68444934     3.34536594
H     15.88223018     0.55150436     4.19331270
O     19.00000000     0.00000000     3.80000000
H     18.38177486     0.73620909     3.80915471
H     18.43145574    -0.76932207     3.70413061
O     22.80000000     0.00000000     3.80000000
H     23.31591239    -0.64063084     3.30228874
H     23.09542198     0.84575810     3.45113176
O      0.00000000     3.80000000     3.80000000
H     -0.13342835     3.74299197     2.84961223
H     -0.55217118     3.09357501     4.14693038
O      3.80000000     3.80000000     3.80000000
H      4.57851269     4.20085553     3.40310859
H      4.15675163     3.30346897     4.54194014
O      7.60000000     3.80000000     3.80000000
H      7.04833625     4.58314068     3.88153364
H      8.48389818     4.12741749     3.98923994
O     11.40000000     3.80000000     3.80000000
H     10.66462986     3.33259508     3.39373240
H     11.12500881     4.72073008     3.76957117
O     15.20000000     3.80000000     3.80000000
H     15.21265107     3.17538239     3.06925877
H     14.63309048     3.37427875     4.44935735
O     19.00000000     3.80000000     3.80000000
H     19.91827738     4.07552834     3.72830096
H     18.77298174     4.01034741     4.71022340
O     22.80000000     3.80000000     3.80000000
H     21.96050260     3.53636144     4.18733549
H     23.39853405     3.09381294     4.05951258
O      0.00000000     7.60000000     3.80000000
H      0.81227013     8.10204664     3.68839189
H     -0.67939538     8.27889378     3.84260416
O      3.80000000     7.60000000     3.80000000
H      3.21370405     6.92227684     3.45180704
H      4.30508811     7.13548122     4.47334855
O      7.60000000     7.60000000     3.80000000
H      8.37921096     8.03585805     4.15657818
H      7.08990938     7.37588654     4.58349900
O     11.40000000     7.60000000     3.80000000
H     11.27249361     8.20639737     4.53506075
H     12.33735707     7.39048549     3.84189703
O     15.20000000     7.60000000     3.80000000
H     14.25563113     7.64285180     3.97498889
H     15.44049968     8.51702953     3.64029180
O     19.00000000     7.60000000     3.80000000
H     18.89350904     6.64489439     3.77311303
H     18.19745961     7.90317823     4.23393759
O     22.80000000     7.60000000     3.80000000
H     23.47546643     7.77924045     4.46023323
H     22.24255888     6.94045183     4.22254654
O      0.00000000    11.40000000     3.80000000
H      0.13827080    11.10344548     4.70400584
H      0.89024102    11.44450021     3.43974923
O      3.80000000    11.40000000     3.80000000
H      3.51063701    12.28259361     4.04816836
H      3.05467284    11.05088055     3.30311672
O      7.60000000    11.40000000     3.80000000
H      7.97730998    10.51714235     3.84989504
H      8.36256424    11.97617585     3.90395736
O     11.40000000    11.40000000     3.80000000
H     11.11105597    12.00855355     4.48590370
H     10.73982735    10.70161882     3.82693992
O     15.20000000    11.40000000     3.80000000
H     15.76380155    11.42664690     4.57827226
H     15.82013726    11.48712854     3.07052872
O     19.00000000    11.40000000     3.80000000
H     18.21637926    11.95597362     3.83349357
H     19.49546750    11.75503303     3.05652609
O     22.80000000    11.40000000     3.80000000
H     22.21753036    10.64983737     3.65075152
H     22.21663905    12.15872734     3.70882557
O      0.00000000    15.20000000     3.80000000
H      0.61331487    14.60994437     4.24717915
H     -0.75736245    14.63769229     3.61425256
O      3.80000000    15.20000000     3.80000000
H      4.57425642    15.58822387     4.21725194
H      4.12172734    14.93305245     2.93425149
O      7.60000000    15.20000000     3.80000000
H      6.75963091    15.48876746     3.43300801
H      8.00919270    14.72081284     3.07389329
O     11.40000000    15.20000000     3.80000000
H     12.22852984    15.25104169     3.31500205
H     11.07761245    16.10567392     3.78946517
O     15.20000000    15.20000000     3.80000000
H     14.27947908    14.94803892     3.91596039
H     15.65075832    14.35818701     3.68838557
O     19.00000000    15.20000000     3.80000000
H     19.87394709    15.60014145     3.81983094
H     18.55265695    15.67286666     3.09248938
O     22.80000000    15.20000000     3.80000000
H     22.20435230    15.36549115     3.06372121
H     23.62096727    14.94254060     3.37102755
O      0.00000000    19.00000000     3.80000000
H     -0.60807352    18.86360568     3.06792545
H     -0.22356994    19.87984360     4.11651489
O      3.80000000    19.00000000     3.80000000
H      4.04168552    18.07311052     3.71781747
H      2.85546297    18.97082007     3.97688498
O      7.60000000    19.00000000     3.80000000
H      8.51404649    19.22450287     3.60402184
H      7.50162538    18.11757194     3.43130893
O     11.40000000    19.00000000     3.80000000
H     11.21246476    19.35470532     2.92632693
H     12.35474919    18.88717405     3.79622527
O     15.20000000    19.00000000     3.80000000
H     15.00712971    19.61169333     3.08381407
H     14.61912417    19.29289793     4.50787289
O     19.00000000    19.00000000     3.80000000
H     18.96086336    18.03941085     3.79482583
H     19.81408255    19.18889620     4.27526602
O     22.80000000    19.00000000     3.80000000
H     22.69608784    19.94756311     3.67503451
H     21.90166740    18.66462584     3.73062651
O      0.00000000    22.80000000     3.80000000
H      0.24208283    22.20609870     3.08378278
H      0.84732118    23.12049274     4.12190243
O      3.80000000    22.80000000     3.80000000
H      3.13137777    23.34842043     3.37991751
H      3.63851567    22.92889215     4.73893535
O      7.60000000    22.80000000     3.80000000
H      7.45936028    21.90406811     4.11908695
H      7.03935819    23.33236504     4.37145270
O     11.40000000    22.80000000     3.80000000
H     12.28292029    22.45567450     3.96180750
H     10.84880851    22.01229859     3.79790656
O     15.20000000    22.80000000     3.80000000
H     15.63791810    23.56856310     3.42339880
H     15.92301192    22.29458575     4.18223052
O     19.00000000    22.80000000     3.80000000
H     18.16221999    23.27157514     3.80561277
H     19.35480954    22.96232703     4.67866381
O     22.80000000    22.80000000     3.80000000
H     23.23604080    22.31946133     4.50939479
H     22.65843043    23.67392222     4.17484392
O      0.00000000     0.00000000     7.60000000
H     -0.83393650     0.12955622     8.06049437
H     -0.00550454    -0.93705813     7.38510067
O      3.80000000     0.00000000     7.60000000
H      4.75825582    -0.02178847     7.52542783
H      3.60937557     0.92624059     7.77329354
O      7.60000000     0.00000000     7.60000000
H      6.69860846     0.02538354     7.93337506
H      8.03167322    -0.64362058     8.16894705
O     11.40000000     0.00000000     7.60000000
H     11.48152711    -0.17964328     8.54094186
H     10.94499571     0.84644005     7.57171052
O     15.20000000     0.00000000     7.60000000
H     15.51841975    -0.71480929     8.15852171
H     14.56968644    -0.43375652     7.01789171
O     19.00000000     0.00000000     7.60000000
H     19.81533420     0.50941947     7.59654848
H     19.29850681    -0.90231028     7.45501795
O     22.80000000     0.00000000     7.60000000
H     22.33215901     0.74047509     7.99637282
H     23.72224055     0.18469934     7.79911927
O      0.00000000     3.80000000     7.60000000
H     -0.38367024     3.80261419     8.48152157
H     -0.41281466     4.55618335     7.17331422
O      3.80000000     3.80000000     7.60000000
H      3.59415141     2.93429302     7.96396118
H      4.13046655     3.60048479     6.71950270
O      7.60000000     3.80000000     7.60000000
H      7.95149639     4.66918689     7.38726918
H      6.70361622     3.82949668     7.25371108
O     11.40000000     3.80000000     7.60000000
H     11.23258074     2.87239399     7.78922959
H     12.35963197     3.85759425     7.59109254
O     15.20000000     3.80000000     7.60000000
H     15.03180160     4.55449362     8.17161056
H     14.45847649     3.81220669     6.98821259
O     19.00000000     3.80000000     7.60000000
H     19.09680027     2.84425138     7.56173458
H     18.94482284     4.05719588     6.67528614
O     22.80000000     3.80000000     7.60000000
H     23.55430941     3.94582330     7.02203560
H     22.46887726     2.94054937     7.32433299
O      0.00000000     7.60000000     7.60000000
H      0.07788883     8.54949481     7.47083772
H      0.91325672     7.30664773     7.66478093
O      3.80000000     7.60000000     7.60000000
H      2.87954608     7.79274906     7.79975572
H      4.08577095     8.36734123     7.09620207
O      7.60000000     7.60000000     7.60000000
H      7.69609270     6.74929688     7.16255246
H      7.21388729     8.15957389     6.92023240
O     11.40000000     7.60000000     7.60000000
H     11.15246071     7.90862406     6.72377774
H     10.99083783     6.73182119     7.65605204
O     15.20000000     7.60000000     7.60000000
H     16.02427676     7.23350712     7.26752330
H     15.46328259     8.44936459     7.96544771
O     19.00000000     7.60000000     7.60000000
H     18.08794175     7.90380979     7.58819652
H     18.92684425     6.66240682     7.40035726
O     22.80000000     7.60000000     7.60000000
H     23.47106320     7.31011943     6.97555353
H     22.60351480     8.49774871     7.31763362
O      0.00000000    11.40000000     7.60000000
H     -0.03510133    11.12760505     6.67866464
H     -0.25975206    10.60755290     8.07837895
O      3.80000000    11.40000000     7.60000000
H      4.43812967    12.06859426     7.33530735
H      4.25499913    10.91896532     8.29704475
O      7.60000000    11.40000000     7.60000000
H      6.87448667    12.02812772     7.65810284
H      8.38231688    11.95211476     7.68625284
O     11.40000000    11.40000000     7.60000000
H     10.84313440    10.81198935     7.08189370
H     10.88946797    12.21356981     7.64184706
O     15.20000000    11.40000000     7.60000000
H     15.32922717    10.72962415     6.92310524
H     14.90925399    10.89422400     8.36416448
O     19.00000000    11.40000000     7.60000000
H     19.70575216    12.04961698     7.66481997
H     18.54193618    11.48154660     8.44131899
O     22.80000000    11.40000000     7.60000000
H     22.24049284    10.70402383     7.95617252
H     23.69074988    11.07194978     7.75243903
O      0.00000000    15.20000000     7.60000000
H      0.41409149    16.04083540     7.38595788
H     -0.92662746    15.42899005     7.71495683
O      3.80000000    15.20000000     7.60000000
H      3.64958397    14.29218672     7.32153989
H      4.37225816    15.10760041     8.36698949
O      7.60000000    15.20000000     7.60000000
H      8.14598245    15.82406811     8.08655124
H      7.21456736    14.65316262     8.29043503
O     11.40000000    15.20000000     7.60000000
H     11.17088445    15.83219675     8.28711229
H     12.35589331    15.27792091     7.53302037
O     15.20000000    15.20000000     7.60000000
H     14.26323064    14.99675334     7.67378289
H     15.21586200    16.15745381     7.51443977
O     19.00000000    15.20000000     7.60000000
H     19.15395225    14.25224643     7.64849575
H     18.19408652    15.32283057     8.10961366
O     22.80000000    15.20000000     7.60000000
H     23.24774924    15.55479552     8.37325980
H     22.43945769    14.36540987     7.91266359
O      0.00000000    19.00000000     7.60000000
H      0.40538604    18.74070670     8.43229748
H      0.70856297    19.45690711     7.13797794
O      3.80000000    19.00000000     7.60000000
H      3.09621427    19.63910555     7.74324703
H      3.34900579    18.25842269     7.18653020
O      7.60000000    19.00000000     7.60000000
H      8.37284804    18.44202402     7.72513459
H      7.93284363    19.88581078     7.76983622
O     11.40000000    19.00000000     7.60000000
H     10.91464900    19.29040483     8.37742485
H     11.14961722    18.07602580     7.51128639
O     15.20000000    19.00000000     7.60000000
H     15.76593331    19.37151703     8.28263060
H     15.67831575    19.18483319     6.78677144
O     19.00000000    19.00000000     7.60000000
H     18.08963503    19.30033951     7.52704964
H     19.46707913    19.54121210     6.95718081
O     22.80000000    19.00000000     7.60000000
H     22.40978377    18.12435146     7.52746803
H     22.03955644    19.58758065     7.57234984
O      0.00000000    22.80000000     7.60000000
H      0.68540987    22.37137699     8.12037063
H     -0.54641968    22.06740375     7.30164078
O      3.80000000    22.80000000     7.60000000
H      4.45911237    23.42994666     7.90500499
H      4.02770323    22.66685559     6.67549269
O      7.60000000    22.80000000     7.60000000
H      6.77523676    22.63633688     7.13387776
H      8.26945400    22.46886034     6.99463414
O     11.40000000    22.80000000     7.60000000
H     12.09864512    23.32599059     7.20060188
H     10.66030993    23.41190243     7.65219170
O     15.20000000    22.80000000     7.60000000
H     14.56427786    22.10135554     7.77900627
H     16.00421260    22.32091802     7.38088242
O     19.00000000    22.80000000     7.60000000
H     19.58011487    23.56037048     7.50205393
H     18.39413287    22.88290700     6.85815001
O     22.80000000    22.80000000     7.60000000
H     22.29429518    22.82666146     6.78278414
H     23.70687499    22.92650007     7.30697195
O      0.00000000     0.00000000    11.40000000
H     -0.65072135    -0.32314402    10.77037342
H     -0.41723865     0.78189081    11.77262397
O      3.80000000     0.00000000    11.40000000
H      4.27046676    -0.83813902    11.37822911
H      2.87763162    -0.26211008    11.46946108
O      7.60000000     0.00000000    11.40000000
H      8.38322681     0.46313628    11.08959621
H      7.68955310    -0.87598214    11.01409133
O     11.40000000     0.00000000    11.40000000
H     11.25416028     0.19797714    10.47057771
H     12.32286972     0.23214019    11.53679314
O     15.20000000     0.00000000    11.40000000
H     14.70442484     0.57082597    10.80598575
H     14.60629972    -0.11581770    12.14725912
O     19.00000000     0.00000000    11.40000000
H     19.45902501    -0.84299564    11.45426195
H     19.63557619     0.62519923    11.75980382
O     22.80000000     0.00000000    11.40000000
H     22.23528007     0.74207706    11.16611328
H     22.21623055    -0.75981139    11.32132449
O      0.00000000     3.80000000    11.40000000
H      0.53037027     3.50933942    10.65266222
H      0.57588559     4.42006280    11.85625418
O      3.80000000     3.80000000    11.40000000
H      2.90950154     4.02626482    11.11696876
H      3.77073295     3.92330017    12.35301126
O      7.60000000     3.80000000    11.40000000
H      7.67396876     2.91650441    11.77182541
H      6.82903012     4.16597717    11.84266931
O     11.40000000     3.80000000    11.40000000
H     12.35241154     3.68021736    11.45342595
H     11.06080562     2.90046640    11.39125756
O     15.20000000     3.80000000    11.40000000
H     15.46428520     4.63787371    11.00960157
H     15.97363399     3.53367435    11.90482774
O     19.00000000     3.80000000    11.40000000
H     18.05987360     3.93729871    11.54697406
H     19.38788410     3.95807396    12.26536034
O     22.80000000     3.80000000    11.40000000
H     23.39835761     3.69679286    12.14539011
H     22.28082038     4.57442998    11.63452226
O      0.00000000     7.60000000    11.40000000
H     -0.82874406     7.25538623    11.74454983
H      0.49962514     6.80776859    11.18312660
O      3.80000000     7.60000000    11.40000000
H      4.62389624     8.08891242    11.31969069
H      3.16996401     8.26739860    11.68622321
O      7.60000000     7.60000000    11.40000000
H      6.83659751     7.25025728    11.86817371
H      8.34409047     7.30744053    11.93388041
O     11.40000000     7.60000000    11.40000000
H     11.36215731     7.46855399    12.35161959
H     10.67641268     8.20938771    11.22865830
O     15.20000000     7.60000000    11.40000000
H     15.77587235     6.96123308    11.82969503
H     14.64939932     7.05709571    10.82869992
O     19.00000000     7.60000000    11.40000000
H     19.66411685     8.29512347    11.39350954
H     19.52023375     6.79224432    11.36568444
O     22.80000000     7.60000000    11.40000000
H     22.19616783     8.13880209    11.91900769
H     23.65541372     8.01156665    11.55221767
O      0.00000000    11.40000000    11.40000000
H     -0.41954851    11.41980522    12.26479868
H     -0.61951301    11.87522782    10.83906141
O      3.80000000    11.40000000    11.40000000
H      3.98585530    10.48371225    11.62397438
H      4.23809922    11.51713061    10.55227395
O      7.60000000    11.40000000    11.40000000
H      7.42794338    12.32200775    11.18884087
H      6.77713332    10.95958816    11.16931015
O     11.40000000    11.40000000    11.40000000
H     11.73502674    10.55087943    11.70173050
H     12.18996240    11.94473503    11.34072850
O     15.20000000    11.40000000    11.40000000
H     14.61347361    11.94413425    11.93309912
H     14.64143148    11.11554798    10.67104306
O     19.00000000    11.40000000    11.40000000
H     19.43164161    10.56015459    11.21934794
H     18.69445553    11.68605436    10.53449122
O     22.80000000    11.40000000    11.40000000
H     23.52665275    11.68007957    10.83624369
H     22.74923290    10.45229625    11.24647390
O      0.00000000    15.20000000    11.40000000
H     -0.16308060    16.14726872    11.38059258
H      0.95928733    15.13763289    11.41296624
O      3.80000000    15.20000000    11.40000000
H      2.85128629    15.15634460    11.54942043
H      3.89832206    15.94240518    10.79712581
O      7.60000000    15.20000000    11.40000000
H      7.99371168    14.53398976    10.82928866
H      7.04210465    15.70610472    10.80258829
O     11.40000000    15.20000000    11.40000000
H     10.93543298    15.24981985    10.55977061
H     11.43985619    14.25621470    11.57880366
O     15.20000000    15.20000000    11.40000000
H     16.13094796    15.29999858    11.18176587
H     14.94620308    16.07500102    11.70700212
O     19.00000000    15.20000000    11.40000000
H     18.06416797    14.98972119    11.33449286
H     19.43249418    14.39059937    11.11345269
O     22.80000000    15.20000000    11.40000000
H     23.41153285    15.24811809    10.65972830
H     22.16659646    15.89883021    11.21365019
O      0.00000000    19.00000000    11.40000000
H      0.18805495    18.61152859    10.54092185
H     -0.01410129    18.24178977    11.99093854
O      3.80000000    19.00000000    11.40000000
H      4.21383277    19.85569658    11.25572331
H      4.39049080    18.56735010    12.02323723
O      7.60000000    19.00000000    11.40000000
H      6.74151060    19.43275396    11.40314900
H      8.22121730    19.73373637    11.40315862
O     11.40000000    19.00000000    11.40000000
H     11.02253055    18.36514530    10.78456009
H     10.68571596    19.62785206    11.54103209
O     15.20000000    19.00000000    11.40000000
H     15.51340553    18.31005002    10.80836163
H     15.16964168    18.56445124    12.25654282
O     19.00000000    19.00000000    11.40000000
H     19.31523625    19.88909208    11.58555686
H     18.42531289    18.80542959    12.14576608
O     22.80000000    19.00000000    11.40000000
H     22.71245367    18.08913691    11.69487969
H     23.74410004    19.16824344    11.46825844
O      0.00000000    22.80000000    11.40000000
H     -0.10258089    23.70801548    11.10121076
H     -0.89828281    22.53049459    11.61152963
O      3.80000000    22.80000000    11.40000000
H      4.12696051    21.91394512    11.22029597
H      4.21773387    23.02826043    12.23527573
O      7.60000000    22.80000000    11.40000000
H      7.91149792    23.48631323    11.99685271
H      7.49079391    22.03628114    11.97367020
O     11.40000000    22.80000000    11.40000000
H     11.02239695    23.43924579    12.01079515
H     12.28992403    23.13141934    11.25004533
O     15.20000000    22.80000000    11.40000000
H     14.34128280    22.36773984    11.39322617
H     14.98010018    23.73585901    11.41009638
O     19.00000000    22.80000000    11.40000000
H     19.41529968    21.94603587    11.55020453
H     18.21741407    22.77016636    11.95763713
O     22.80000000    22.80000000    11.40000000
H     22.97962121    23.18342917    12.26313860
H     22.73078484    21.85864047    11.58259641
O      0.00000000     0.00000000    15.20000000
H      0.61887769    -0.04111608    15.93456779
H      0.33459156     0.72530988    14.66496353
O      3.80000000     0.00000000    15.20000000
H      2.86095645     0.19660962    15.26190171
H      3.81885215    -0.90937355    14.88859304
O      7.60000000     0.00000000    15.20000000
H      8.53093245    -0.08666971    15.42392652
H      7.40411396     0.91836219    15.40622682
O     11.40000000     0.00000000    15.20000000
H     10.94167170    -0.06056860    16.04294518
H     11.58599230    -0.91704508    14.97926226
O     15.20000000     0.00000000    15.20000000
H     15.58978553     0.67399721    15.76399021
H     15.57290591     0.18869927    14.33419186
O     19.00000000     0.00000000    15.20000000
H     18.05183477     0.04355083    15.04710791
H     19.34585431     0.72610357    14.67326633
O     22.80000000     0.00000000    15.20000000
H     22.63648294    -0.94706368    15.22495046
H     21.91707208     0.38040152    15.20478860
O      0.00000000     3.80000000    15.20000000
H      0.72437638     3.51724093    15.76534602
H     -0.28529780     2.98542914    14.77647970
O      3.80000000     3.80000000    15.20000000
H      4.22798164     4.64325204    15.37334266
H      3.89590722     3.69080214    14.24964870
O      7.60000000     3.80000000    15.20000000
H      7.02438287     3.24712030    14.66401594
H      8.43674288     3.77757653    14.72708510
O     11.40000000     3.80000000    15.20000000
H     11.72225814     4.65606689    14.90404538
H     10.45147899     3.93348032    15.28234598
O     15.20000000     3.80000000    15.20000000
H     15.04312796     2.87550132    15.41209271
H     16.10095355     3.80354759    14.86450025
O     19.00000000     3.80000000    15.20000000
H     19.17642523     4.71634048    14.96873345
H     18.48137688     3.47703802    14.45769577
O     22.80000000     3.80000000    15.20000000
H     22.38386865     3.78576706    14.33344240
H     23.61317376     4.29058292    15.05044465
O      0.00000000     7.60000000    15.20000000
H     -0.60642615     7.05798996    14.68739644
H     -0.57178763     8.26441415    15.59484516
O      3.80000000     7.60000000    15.20000000
H      4.46371225     6.90449702    15.20718458
H      2.96963926     7.11738472    15.15671610
O      7.60000000     7.60000000    15.20000000
H      8.17186464     8.23775066    14.76349698
H      7.88047453     6.75766746    14.83108281
O     11.40000000     7.60000000    15.20000000
H     11.37090045     7.73137053    14.24806252
H     12.13493099     8.15271991    15.48047656
O     15.20000000     7.60000000    15.20000000
H     14.42957497     7.94378853    14.73897431
H     14.82251714     7.13466328    15.95183668
O     19.00000000     7.60000000    15.20000000
H     19.83140532     7.12406238    15.28086124
H     19.23250881     8.50075057    15.44264795
O     22.80000000     7.60000000    15.20000000
H     21.96843776     7.93128748    14.84922542
H     22.70178665     6.64514697    15.14615024
O      0.00000000    11.40000000    15.20000000
H      0.59712938    11.51687179    14.45564293
H      0.23179166    12.12331408    15.78938895
O      3.80000000    11.40000000    15.20000000
H      2.85965803    11.25639402    15.06062905
H      3.85634232    11.62906295    16.13201162
O      7.60000000    11.40000000    15.20000000
H      7.86222572    10.56153605    15.59051995
H      6.70044167    11.52322084    15.51607182
O     11.40000000    11.40000000    15.20000000
H     12.35213619    11.51918568    15.14065858
H     11.29412344    10.44462606    15.21845942
O     15.20000000    11.40000000    15.20000000
H     15.27553453    12.28418022    14.83012186
H     15.93145715    11.35375773    15.82219133
O     19.00000000    11.40000000    15.20000000
H     18.11369928    11.16684486    15.49051621
H     19.45121716    11.62884723    16.01750962
O     22.80000000    11.40000000    15.20000000
H     23.32440869    11.70328093    15.94652941
H     21.97044632    11.87541416    15.30055854
O      0.00000000    15.20000000    15.20000000
H     -0.55456719    14.44845005    15.42785492
H      0.85450893    14.80034546    15.01457967
O      3.80000000    15.20000000    15.20000000
H      4.24628325    16.04995611    15.14807854
H      2.94859953    15.41702045    15.59026828
O      7.60000000    15.20000000    15.20000000
H      7.11286012    14.62903178    15.80081611
H      8.42506399    15.36383822    15.66552810
O     11.40000000    15.20000000    15.20000000
H     11.24675625    14.99762817    16.12728203
H     10.54619769    15.52102848    14.89626937
O     15.20000000    15.20000000    15.20000000
H     15.98605346    14.73739950    15.50399127
H     14.74130568    14.54019495    14.67222469
O     19.00000000    15.20000000    15.20000000
H     19.47075723    16.03790909    15.22420635
H     19.70199024    14.54624347    15.26404732
O     22.80000000    15.20000000    15.20000000
H     22.15390272    15.52096279    15.83547710
H     23.52057641    15.83215031    15.27379421
O      0.00000000    19.00000000    15.20000000
H     -0.51146546    18.97564605    16.01369523
H     -0.66673756    19.12972579    14.51961613
O      3.80000000    19.00000000    15.20000000
H      4.38917462    18.24578902    15.29126354
H      4.12992008    19.44901113    14.41652587
O      7.60000000    19.00000000    15.20000000
H      6.95264806    19.68855900    15.02361427
H      7.10404055    18.18685222    15.06921443
O     11.40000000    19.00000000    15.20000000
H     12.10539714    18.48703179    15.60443597
H     11.80115374    19.86255462    15.06084125
O     15.20000000    19.00000000    15.20000000
H     14.37038456    19.15158365    15.66157403
H     14.92561704    18.59496704    14.37238158
O     19.00000000    19.00000000    15.20000000
H     19.65943287    18.37357056    14.88851259
H     18.45598188    19.15800829    14.42323258
O     22.80000000    19.00000000    15.20000000
H     23.48858869    19.42740903    14.68283745
H     23.02760205    18.06729927    15.14943697
O      0.00000000    22.80000000    15.20000000
H     -0.38935418    23.67563596    15.27716833
H      0.94236450    22.97845074    15.13370947
O      3.80000000    22.80000000    15.20000000
H      2.88969346    22.49831100    15.26793894
H      3.76148645    23.47821639    14.51968448
O      7.60000000    22.80000000    15.20000000
H      8.16565149    22.43869073    14.51168034
H      6.85301531    23.15775350    14.71182354
O     11.40000000    22.80000000    15.20000000
H     10.91533944    22.49738147    14.42681430
H     11.88752064    22.01971459    15.47886962
O     15.20000000    22.80000000    15.20000000
H     15.96507542    23.36958428    15.07948728
H     14.49543045    23.41481747    15.42331859
O     19.00000000    22.80000000    15.20000000
H     18.30573557    22.15168960    15.05174185
H     19.78619489    22.37075259    14.85080921
O     22.80000000    22.80000000    15.20000000
H     23.19518803    23.06057029    14.36320880
H     21.89799928    23.12595268    15.13337036
O      0.00000000     0.00000000    19.00000000
H      0.45667981    -0.35525561    18.23219341
H      0.14879336    -0.66566957    19.67752086
O      3.80000000     0.00000000    19.00000000
H      3.95294829     0.94814450    18.95619613
H      4.53695702    -0.32211923    19.52671008
O      7.60000000     0.00000000    19.00000000
H      6.66365212     0.20335321    18.92132291
H      8.02215172     0.86210919    18.94665549
O     11.40000000     0.00000000    19.00000000
H     11.16877924    -0.62783100    18.30959783
H     10.55160088     0.36964651    19.26051939
O     15.20000000     0.00000000    19.00000000
H     15.75044127    -0.62513893    18.51988993
H     15.33205192    -0.24525983    19.92016296
O     19.00000000     0.00000000    19.00000000
H     18.83666969     0.90419755    19.28291334
H     18.50017184    -0.52620572    19.63053098
O     22.80000000     0.00000000    19.00000000
H     23.22805201    -0.83509215    19.20900367
H     23.52381874     0.63262171    19.01289044
O      0.00000000     3.80000000    19.00000000
H     -0.57080369     4.48547117    18.64138826
H     -0.61884471     3.13993450    19.32501494
O      3.80000000     3.80000000    19.00000000
H      4.51318220     3.15789010    18.94206914
H      3.91607458     4.18622011    19.87272600
O      7.60000000     3.80000000    19.00000000
H      7.73060953     4.46638497    19.68056020
H      7.83774769     2.97938025    19.44085057
O     11.40000000     3.80000000    19.00000000
H     10.84140323     4.39128386    19.51248708
H     12.17063356     4.33816576    18.79803098
O     15.20000000     3.80000000    19.00000000
H     14.47405426     3.17256592    18.93984006
H     14.75708352     4.64490866    19.11934948
O     19.00000000     3.80000000    19.00000000
H     19.63898403     3.13494342    19.27145740
H     18.24632809     3.63437885    19.57344420
O     22.80000000     3.80000000    19.00000000
H     22.75963449     4.06341754    19.92372712
H     23.08249915     2.88193730    19.04055942
O      0.00000000     7.60000000    19.00000000
H      0.67261538     7.90003335    19.61794700
H     -0.13100231     8.35914708    18.42482693
O      3.80000000     7.60000000    19.00000000
H      2.89264191     7.28236164    19.00985533
H      4.31186882     6.81092830    18.80088666
O      7.60000000     7.60000000    19.00000000
H      8.41697077     7.97690336    19.33881053
H      6.94090106     8.26781272    19.20953454
O     11.40000000     7.60000000    19.00000000
H     11.16351447     7.28550931    19.87718878
H     11.92910619     6.88278582    18.63952750
O     15.20000000     7.60000000    19.00000000
H     15.29013396     8.45507162    19.43013761
H     15.54392998     7.75614029    18.11590592
O     19.00000000     7.60000000    19.00000000
H     18.07973701     7.40814257    18.79851371
H     19.14353292     8.46048923    18.59596220
O     22.80000000     7.60000000    19.00000000
H     22.87745766     6.65130488    19.13515855
H     21.85044670     7.75041890    19.00355614
O      0.00000000    11.40000000    19.00000000
H      0.75381783    11.25087276    19.57776267
H     -0.01860628    10.61325831    18.44774889
