399
chain of 133 water molecules, AM1 monomer geometry, closest intermolecular contact 1.933 A
O      0.00000000     0.00000000     0.00000000
H      0.96140000     0.00000000     0.00000000
H     -0.22443437     0.93483644     0.00000000
O      3.80000000     0.00000000     0.00000000
H      2.95425679    -0.24655118    -0.38499468
H      4.01789094    -0.74926051     0.56162459
O      7.60000000     0.00000000     0.00000000
H      8.52942643     0.11883708     0.21525385
H      7.15791825     0.10783270     0.84689185
O     11.40000000     0.00000000     0.00000000
H     11.34090565     0.59822888     0.75027996
H     12.20723750    -0.49381138     0.16972891
O     15.20000000     0.00000000     0.00000000
H     14.32598298     0.27744229     0.28880787
H     15.64183870     0.82863288    -0.20600018
O     19.00000000     0.00000000     0.00000000
H     18.65571345    -0.89482011    -0.07108941
H     18.25255017     0.50193351     0.33715200
O     22.80000000     0.00000000     0.00000000
H     23.59512597    -0.09602828     0.53183007
H     22.13333359    -0.47364061     0.50548040
O     26.60000000     0.00000000     0.00000000
H     26.53171057    -0.16655905     0.94439642
H     27.44679492    -0.38932765    -0.23590740
O     30.40000000     0.00000000     0.00000000
H     30.56433073     0.87233631     0.36920826
H     29.62603418     0.13316259    -0.55455801
O     34.20000000     0.00000000     0.00000000
H     34.06061571    -0.95123419     0.00393686
H     35.15738393     0.08660677     0.01432593
O     38.00000000     0.00000000     0.00000000
H     38.07895852     0.76606900     0.57549440
H     37.08699483    -0.27677802     0.11876638
O     41.80000000     0.00000000     0.00000000
H     42.18047251    -0.25675221     0.84475377
H     42.52396115    -0.12624722    -0.61986438
O     45.60000000     0.00000000     0.00000000
H     45.04319539     0.76731095     0.15966366
H     46.05090405     0.21682287    -0.82095270
O     49.40000000     0.00000000     0.00000000
H     48.66641461    -0.58878903    -0.19867036
H     49.04189795     0.87368137    -0.18092467
O     53.20000000     0.00000000     0.00000000
H     53.68772516    -0.74994393     0.35213382
H     52.30500088    -0.33835262    -0.09372320
O     57.00000000     0.00000000     0.00000000
H     57.80130391     0.17042356     0.50314791
H     57.31856161    -0.46561516    -0.77846707
O     60.80000000     0.00000000     0.00000000
H     60.16293211     0.67720864    -0.24458724
H     60.96511936    -0.46191502    -0.82683739
O     64.60000000     0.00000000     0.00000000
H     65.27735388    -0.40976309    -0.54550517
H     64.76862505     0.94099370    -0.10191370
O     68.40000000     0.00000000     0.00000000
H     67.47933788     0.27542606     0.02849054
H     68.34660267    -0.95967517    -0.02150018
O     72.20000000     0.00000000     0.00000000
H     73.15093517    -0.08313340     0.11446003
H     72.11249167     0.70964037    -0.64268406
O     76.00000000     0.00000000     0.00000000
H     75.39004429     0.39594423    -0.62886577
H     76.55482931    -0.56163796    -0.54865034
O     79.80000000     0.00000000     0.00000000
H     79.28577579    -0.02027494    -0.81206671
H     79.82047113     0.93339626     0.22943915
O     83.60000000     0.00000000     0.00000000
H     83.59040312    -0.94630804    -0.16940763
H     82.69685217     0.18881703     0.27011497
O     87.40000000     0.00000000     0.00000000
H     88.35534431    -0.03643873    -0.10138756
H     87.10748697    -0.85823213    -0.31963058
O     91.20000000     0.00000000     0.00000000
H     91.08554604     0.53748769    -0.78885819
H     92.05819679    -0.41269450    -0.13217969
O     95.00000000     0.00000000     0.00000000
H     95.03317090     0.50220951    -0.81913080
H     94.64891344     0.63016202     0.63555016
O     98.80000000     0.00000000     0.00000000
H     98.28998014    -0.80955494    -0.09375766
H     99.52281266    -0.25600301     0.57990885
O    102.60000000     0.00000000     0.00000000
H    103.00666740     0.87054448    -0.03261735
H    101.65817565     0.19108618    -0.02725655
O    106.40000000     0.00000000     0.00000000
H    106.22335437    -0.68202959    -0.65415741
H    107.33446642    -0.11322549     0.19555680
O    110.20000000     0.00000000     0.00000000
H    109.88973593     0.73115192    -0.54170383
H    109.94379027     0.25598316     0.89057237
O    114.00000000     0.00000000     0.00000000
H    113.61688346    -0.84987866     0.23498499
H    113.68552247     0.58730144     0.69316006
O    117.80000000     0.00000000     0.00000000
H    118.55927591    -0.53085978     0.25686171
H    117.06797743    -0.62207461     0.03815871
O    121.60000000     0.00000000     0.00000000
H    122.20469400     0.67032351    -0.33060781
H    122.18287346    -0.71765406     0.26366862
O    125.40000000     0.00000000     0.00000000
H    124.76852696     0.71417086    -0.12446586
H    125.79058068     0.19260257     0.85711198
O    129.20000000     0.00000000     0.00000000
H    129.29699447    -0.71068090     0.64016771
H    129.39026011     0.79100527     0.51225162
O    133.00000000     0.00000000     0.00000000
H    132.41611823     0.51227307     0.56652302
H    132.49548689    -0.79864365    -0.17867515
O    136.80000000     0.00000000     0.00000000
H    137.60319611    -0.52714922    -0.03577248
H    137.12626042     0.90230982     0.06067199
O    140.60000000     0.00000000     0.00000000
H    139.77929899     0.45655252     0.20566867
H    140.57485528    -0.77428468     0.56933377
O    144.40000000     0.00000000     0.00000000
H    144.52373153    -0.32641769     0.89578567
H    144.32396708     0.95130873     0.11627833
O    148.20000000     0.00000000     0.00000000
H    148.26834793    -0.67497152     0.68119892
H    147.48407481    -0.31627976    -0.55830833
O    152.00000000     0.00000000     0.00000000
H    152.91690326     0.28717177     0.03332799
H    152.06338605    -0.92369726    -0.25895084
O    155.80000000     0.00000000     0.00000000
H    155.54200434     0.88379254     0.27683741
H    156.73699182    -0.03703840     0.21204822
O    159.60000000     0.00000000     0.00000000
H    159.17720309    -0.01547118     0.86330376
H    159.49196635     0.91133351    -0.28651340
O    163.40000000     0.00000000     0.00000000
H    162.91407257    -0.66044652     0.50197100
H    163.45969357    -0.38517758    -0.87884291
O    167.20000000     0.00000000     0.00000000
H    167.96435920     0.55464887    -0.18002669
H    166.48652331     0.44202617    -0.46888575
O    171.00000000     0.00000000     0.00000000
H    170.36201083    -0.71517111     0.07609247
H    171.84764494    -0.45355960     0.00846823
O    174.80000000     0.00000000     0.00000000
H    175.10294317     0.70806456     0.57546500
H    174.07256566     0.40035325    -0.48460964
O    178.60000000     0.00000000     0.00000000
H    178.30965159    -0.91029115     0.10657289
H    178.71402935     0.08939346    -0.95041889
O    182.40000000     0.00000000     0.00000000
H    183.18313550     0.00404865    -0.55764895
H    181.83687812    -0.66343166    -0.40870790
O    186.20000000     0.00000000     0.00000000
H    186.50422379     0.87898367    -0.24315747
H    187.01436851    -0.50390072     0.08472276
O    190.00000000     0.00000000     0.00000000
H    189.15416864     0.40260979     0.21625133
H    190.49909651     0.72266630    -0.39108318
O    193.80000000     0.00000000     0.00000000
H    193.55346696    -0.88039794    -0.29733967
H    193.53451802     0.56607801    -0.73031840
O    197.60000000     0.00000000     0.00000000
H    197.67446612     0.38456940    -0.87798128
H    196.85600607    -0.60340469    -0.08164424
O    201.40000000     0.00000000     0.00000000
H    201.89912617    -0.68444934    -0.45463406
H    202.08223018     0.55150436     0.39331270
O    205.20000000     0.00000000     0.00000000
H    204.58177486     0.73620909     0.00915471
H    204.63145574    -0.76932207    -0.09586939
O    209.00000000     0.00000000     0.00000000
H    209.51591239    -0.64063084    -0.49771126
H    209.29542198     0.84575810    -0.34886824
O    212.80000000     0.00000000     0.00000000
H    212.66657165    -0.05700803    -0.95038777
H    212.24782882    -0.70642499     0.34693038
O    216.60000000     0.00000000     0.00000000
H    217.37851269     0.40085553    -0.39689141
H    216.95675163    -0.49653103     0.74194014
O    220.40000000     0.00000000     0.00000000
H    219.84833625     0.78314068     0.08153364
H    221.28389818     0.32741749     0.18923994
O    224.20000000     0.00000000     0.00000000
H    223.46462986    -0.46740492    -0.40626760
H    223.92500881     0.92073008    -0.03042883
O    228.00000000     0.00000000     0.00000000
H    228.01265107    -0.62461761    -0.73074123
H    227.43309048    -0.42572125     0.64935735
O    231.80000000     0.00000000     0.00000000
H    232.71827738     0.27552834    -0.07169904
H    231.57298174     0.21034741     0.91022340
O    235.60000000     0.00000000     0.00000000
H    234.76050260    -0.26363856     0.38733549
H    236.19853405    -0.70618706     0.25951258
O    239.40000000     0.00000000     0.00000000
H    240.21227013     0.50204664    -0.11160811
H    238.72060462     0.67889378     0.04260416
O    243.20000000     0.00000000     0.00000000
H    242.61370405    -0.67772316    -0.34819296
H    243.70508811    -0.46451878     0.67334855
O    247.00000000     0.00000000     0.00000000
H    247.77921096     0.43585805     0.35657818
H    246.48990938    -0.22411346     0.78349900
O    250.80000000     0.00000000     0.00000000
H    250.67249361     0.60639737     0.73506075
H    251.73735707    -0.20951451     0.04189703
O    254.60000000     0.00000000     0.00000000
H    253.65563113     0.04285180     0.17498889
H    254.84049968     0.91702953    -0.15970820
O    258.40000000     0.00000000     0.00000000
H    258.29350904    -0.95510561    -0.02688697
H    257.59745961     0.30317823     0.43393759
O    262.20000000     0.00000000     0.00000000
H    262.87546643     0.17924045     0.66023323
H    261.64255888    -0.65954817     0.42254654
O    266.00000000     0.00000000     0.00000000
H    266.13827080    -0.29655452     0.90400584
H    266.89024102     0.04450021    -0.36025077
O    269.80000000     0.00000000     0.00000000
H    269.51063701     0.88259361     0.24816836
H    269.05467284    -0.34911945    -0.49688328
O    273.60000000     0.00000000     0.00000000
H    273.97730998    -0.88285765     0.04989504
H    274.36256424     0.57617585     0.10395736
O    277.40000000     0.00000000     0.00000000
H    277.11105597     0.60855355     0.68590370
H    276.73982735    -0.69838118     0.02693992
O    281.20000000     0.00000000     0.00000000
H    281.76380155     0.02664690     0.77827226
H    281.82013726     0.08712854    -0.72947128
O    285.00000000     0.00000000     0.00000000
H    284.21637926     0.55597362     0.03349357
H    285.49546750     0.35503303    -0.74347391
O    288.80000000     0.00000000     0.00000000
H    288.21753036    -0.75016263    -0.14924848
H    288.21663905     0.75872734    -0.09117443
O    292.60000000     0.00000000     0.00000000
H    293.21331487    -0.59005563     0.44717915
H    291.84263755    -0.56230771    -0.18574744
O    296.40000000     0.00000000     0.00000000
H    297.17425642     0.38822387     0.41725194
H    296.72172734    -0.26694755    -0.86574851
O    300.20000000     0.00000000     0.00000000
H    299.35963091     0.28876746    -0.36699199
H    300.60919270    -0.47918716    -0.72610671
O    304.00000000     0.00000000     0.00000000
H    304.82852984     0.05104169    -0.48499795
H    303.67761245     0.90567392    -0.01053483
O    307.80000000     0.00000000     0.00000000
H    306.87947908    -0.25196108     0.11596039
H    308.25075832    -0.84181299    -0.11161443
O    311.60000000     0.00000000     0.00000000
H    312.47394709     0.40014145     0.01983094
H    311.15265695     0.47286666    -0.70751062
O    315.40000000     0.00000000     0.00000000
H    314.80435230     0.16549115    -0.73627879
H    316.22096727    -0.25745940    -0.42897245
O    319.20000000     0.00000000     0.00000000
H    318.59192648    -0.13639432    -0.73207455
H    318.97643006     0.87984360     0.31651489
O    323.00000000     0.00000000     0.00000000
H    323.24168552    -0.92688948    -0.08218253
H    322.05546297    -0.02917993     0.17688498
O    326.80000000     0.00000000     0.00000000
H    327.71404649     0.22450287    -0.19597816
H    326.70162538    -0.88242806    -0.36869107
O    330.60000000     0.00000000     0.00000000
H    330.41246476     0.35470532    -0.87367307
H    331.55474919    -0.11282595    -0.00377473
O    334.40000000     0.00000000     0.00000000
H    334.20712971     0.61169333    -0.71618593
H    333.81912417     0.29289793     0.70787289
O    338.20000000     0.00000000     0.00000000
H    338.16086336    -0.96058915    -0.00517417
H    339.01408255     0.18889620     0.47526602
O    342.00000000     0.00000000     0.00000000
H    341.89608784     0.94756311    -0.12496549
H    341.10166740    -0.33537416    -0.06937349
O    345.80000000     0.00000000     0.00000000
H    346.04208283    -0.59390130    -0.71621722
H    346.64732118     0.32049274     0.32190243
O    349.60000000     0.00000000     0.00000000
H    348.93137777     0.54842043    -0.42008249
H    349.43851567     0.12889215     0.93893535
O    353.40000000     0.00000000     0.00000000
H    353.25936028    -0.89593189     0.31908695
H    352.83935819     0.53236504     0.57145270
O    357.20000000     0.00000000     0.00000000
H    358.08292029    -0.34432550     0.16180750
H    356.64880851    -0.78770141    -0.00209344
O    361.00000000     0.00000000     0.00000000
H    361.43791810     0.76856310    -0.37660120
H    361.72301192    -0.50541425     0.38223052
O    364.80000000     0.00000000     0.00000000
H    363.96221999     0.47157514     0.00561277
H    365.15480954     0.16232703     0.87866381
O    368.60000000     0.00000000     0.00000000
H    369.03604080    -0.48053867     0.70939479
H    368.45843043     0.87392222     0.37484392
O    372.40000000     0.00000000     0.00000000
H    371.56606350     0.12955622     0.46049437
H    372.39449546    -0.93705813    -0.21489933
O    376.20000000     0.00000000     0.00000000
H    377.15825582    -0.02178847    -0.07457217
H    376.00937557     0.92624059     0.17329354
O    380.00000000     0.00000000     0.00000000
H    379.09860846     0.02538354     0.33337506
H    380.43167322    -0.64362058     0.56894705
O    383.80000000     0.00000000     0.00000000
H    383.88152711    -0.17964328     0.94094186
H    383.34499571     0.84644005    -0.02828948
O    387.60000000     0.00000000     0.00000000
H    387.91841975    -0.71480929     0.55852171
H    386.96968644    -0.43375652    -0.58210829
O    391.40000000     0.00000000     0.00000000
H    392.21533420     0.50941947    -0.00345152
H    391.69850681    -0.90231028    -0.14498205
O    395.20000000     0.00000000     0.00000000
H    394.73215901     0.74047509     0.39637282
H    396.12224055     0.18469934     0.19911927
O    399.00000000     0.00000000     0.00000000
H    398.61632976     0.00261419     0.88152157
H    398.58718534     0.75618335    -0.42668578
O    402.80000000     0.00000000     0.00000000
H    402.59415141    -0.86570698     0.36396118
H    403.13046655    -0.19951521    -0.88049730
O    406.60000000     0.00000000     0.00000000
H    406.95149639     0.86918689    -0.21273082
H    405.70361622     0.02949668    -0.34628892
O    410.40000000     0.00000000     0.00000000
H    410.23258074    -0.92760601     0.18922959
H    411.35963197     0.05759425    -0.00890746
O    414.20000000     0.00000000     0.00000000
H    414.03180160     0.75449362     0.57161056
H    413.45847649     0.01220669    -0.61178741
O    418.00000000     0.00000000     0.00000000
H    418.09680027    -0.95574862    -0.03826542
H    417.94482284     0.25719588    -0.92471386
O    421.80000000     0.00000000     0.00000000
H    422.55430941     0.14582330    -0.57796440
H    421.46887726    -0.85945063    -0.27566701
O    425.60000000     0.00000000     0.00000000
H    425.67788883     0.94949481    -0.12916228
H    426.51325672    -0.29335227     0.06478093
O    429.40000000     0.00000000     0.00000000
H    428.47954608     0.19274906     0.19975572
H    429.68577095     0.76734123    -0.50379793
O    433.20000000     0.00000000     0.00000000
H    433.29609270    -0.85070312    -0.43744754
H    432.81388729     0.55957389    -0.67976760
O    437.00000000     0.00000000     0.00000000
H    436.75246071     0.30862406    -0.87622226
H    436.59083783    -0.86817881     0.05605204
O    440.80000000     0.00000000     0.00000000
H    441.62427676    -0.36649288    -0.33247670
H    441.06328259     0.84936459     0.36544771
O    444.60000000     0.00000000     0.00000000
H    443.68794175     0.30380979    -0.01180348
H    444.52684425    -0.93759318    -0.19964274
O    448.40000000     0.00000000     0.00000000
H    449.07106320    -0.28988057    -0.62444647
H    448.20351480     0.89774871    -0.28236638
O    452.20000000     0.00000000     0.00000000
H    452.16489867    -0.27239495    -0.92133536
H    451.94024794    -0.79244710     0.47837895
O    456.00000000     0.00000000     0.00000000
H    456.63812967     0.66859426    -0.26469265
H    456.45499913    -0.48103468     0.69704475
O    459.80000000     0.00000000     0.00000000
H    459.07448667     0.62812772     0.05810284
H    460.58231688     0.55211476     0.08625284
O    463.60000000     0.00000000     0.00000000
H    463.04313440    -0.58801065    -0.51810630
H    463.08946797     0.81356981     0.04184706
O    467.40000000     0.00000000     0.00000000
H    467.52922717    -0.67037585    -0.67689476
H    467.10925399    -0.50577600     0.76416448
O    471.20000000     0.00000000     0.00000000
H    471.90575216     0.64961698     0.06481997
H    470.74193618     0.08154660     0.84131899
O    475.00000000     0.00000000     0.00000000
H    474.44049284    -0.69597617     0.35617252
H    475.89074988    -0.32805022     0.15243903
O    478.80000000     0.00000000     0.00000000
H    479.21409149     0.84083540    -0.21404212
H    477.87337254     0.22899005     0.11495683
O    482.60000000     0.00000000     0.00000000
H    482.44958397    -0.90781328    -0.27846011
H    483.17225816    -0.09239959     0.76698949
O    486.40000000     0.00000000     0.00000000
H    486.94598245     0.62406811     0.48655124
H    486.01456736    -0.54683738     0.69043503
O    490.20000000     0.00000000     0.00000000
H    489.97088445     0.63219675     0.68711229
H    491.15589331     0.07792091    -0.06697963
O    494.00000000     0.00000000     0.00000000
H    493.06323064    -0.20324666     0.07378289
H    494.01586200     0.95745381    -0.08556023
O    497.80000000     0.00000000     0.00000000
H    497.95395225    -0.94775357     0.04849575
H    496.99408652     0.12283057     0.50961366
O    501.60000000     0.00000000     0.00000000
H    502.04774924     0.35479552     0.77325980
H    501.23945769    -0.83459013     0.31266359
