48
cluster of 16 water molecules, AM1 monomer geometry, closest intermolecular contact 1.966 A
O      0.00000000     0.00000000     0.00000000
H      0.96140000     0.00000000     0.00000000
H     -0.22443437     0.93483644     0.00000000
O      3.80000000     0.00000000     0.00000000
H      2.95425679    -0.24655118    -0.38499468
H      4.01789094    -0.74926051     0.56162459
O      7.60000000     0.00000000     0.00000000
H      8.52942643     0.11883708     0.21525385
H      7.15791825     0.10783270     0.84689185
O      0.00000000     3.80000000     0.00000000
H     -0.05909435     4.39822888     0.75027996
H      0.80723750     3.30618862     0.16972891
O      3.80000000     3.80000000     0.00000000
H      2.92598298     4.07744229     0.28880787
H      4.24183870     4.62863288    -0.20600018
O      7.60000000     3.80000000     0.00000000
H      7.25571345     2.90517989    -0.07108941
H      6.85255017     4.30193351     0.33715200
O      0.00000000     7.60000000     0.00000000
H      0.79512597     7.50397172     0.53183007
H     -0.66666641     7.12635939     0.50548040
O      3.80000000     7.60000000     0.00000000
H      3.73171057     7.43344095     0.94439642
H      4.64679492     7.21067235    -0.23590740
O      7.60000000     7.60000000     0.00000000
H      7.76433073     8.47233631     0.36920826
H      6.82603418     7.73316259    -0.55455801
O      0.00000000     0.00000000     3.80000000
H     -0.13938429    -0.95123419     3.80393686
H      0.95738393     0.08660677     3.81432593
O      3.80000000     0.00000000     3.80000000
H      3.87895852     0.76606900     4.37549440
H      2.88699483    -0.27677802     3.91876638
O      7.60000000     0.00000000     3.80000000
H      7.98047251    -0.25675221     4.64475377
H      8.32396115    -0.12624722     3.18013562
O      0.00000000     3.80000000     3.80000000
H     -0.55680461     4.56731095     3.95966366
H      0.45090405     4.01682287     2.97904730
O      3.80000000     3.80000000     3.80000000
H      3.06641461     3.21121097     3.60132964
H      3.44189795     4.67368137     3.61907533
O      7.60000000     3.80000000     3.80000000
H      8.08772516     3.05005607     4.15213382
H      6.70500088     3.46164738     3.70627680
O      0.00000000     7.60000000     3.80000000
H      0.80130391     7.77042356     4.30314791
H      0.31856161     7.13438484     3.02153293
