201
chain of 67 water molecules, AM1 monomer geometry, closest intermolecular contact 1.966 A
O      0.00000000     0.00000000     0.00000000
H      0.96140000     0.00000000     0.00000000
H     -0.22443437     0.93483644     0.00000000
O      3.80000000     0.00000000     0.00000000
H      2.95425679    -0.24655118    -0.38499468
H      4.01789094    -0.74926051     0.56162459
O      7.60000000     0.00000000     0.00000000
H      8.52942643     0.11883708     0.21525385
H      7.15791825     0.10783270     0.84689185
O     11.40000000     0.00000000     0.00000000
H     11.34090565     0.59822888     0.75027996
H     12.20723750    -0.49381138     0.16972891
O     15.20000000     0.00000000     0.00000000
H     14.32598298     0.27744229     0.28880787
H     15.64183870     0.82863288    -0.20600018
O     19.00000000     0.00000000     0.00000000
H     18.65571345    -0.89482011    -0.07108941
H     18.25255017     0.50193351     0.33715200
O     22.80000000     0.00000000     0.00000000
H     23.59512597    -0.09602828     0.53183007
H     22.13333359    -0.47364061     0.50548040
O     26.60000000     0.00000000     0.00000000
H     26.53171057    -0.16655905     0.94439642
H     27.44679492    -0.38932765    -0.23590740
O     30.40000000     0.00000000     0.00000000
H     30.56433073     0.87233631     0.36920826
H     29.62603418     0.13316259    -0.55455801
O     34.20000000     0.00000000     0.00000000
H     34.06061571    -0.95123419     0.00393686
H     35.15738393     0.08660677     0.01432593
O     38.00000000     0.00000000     0.00000000
H     38.07895852     0.76606900     0.57549440
H     37.08699483    -0.27677802     0.11876638
O     41.80000000     0.00000000     0.00000000
H     42.18047251    -0.25675221     0.84475377
H     42.52396115    -0.12624722    -0.61986438
O     45.60000000     0.00000000     0.00000000
H     45.04319539     0.76731095     0.15966366
H     46.05090405     0.21682287    -0.82095270
O     49.40000000     0.00000000     0.00000000
H     48.66641461    -0.58878903    -0.19867036
H     49.04189795     0.87368137    -0.18092467
O     53.20000000     0.00000000     0.00000000
H     53.68772516    -0.74994393     0.35213382
H     52.30500088    -0.33835262    -0.09372320
O     57.00000000     0.00000000     0.00000000
H     57.80130391     0.17042356     0.50314791
H     57.31856161    -0.46561516    -0.77846707
O     60.80000000     0.00000000     0.00000000
H     60.16293211     0.67720864    -0.24458724
H     60.96511936    -0.46191502    -0.82683739
O     64.60000000     0.00000000     0.00000000
H     65.27735388    -0.40976309    -0.54550517
H     64.76862505     0.94099370    -0.10191370
O     68.40000000     0.00000000     0.00000000
H     67.47933788     0.27542606     0.02849054
H     68.34660267    -0.95967517    -0.02150018
O     72.20000000     0.00000000     0.00000000
H     73.15093517    -0.08313340     0.11446003
H     72.11249167     0.70964037    -0.64268406
O     76.00000000     0.00000000     0.00000000
H     75.39004429     0.39594423    -0.62886577
H     76.55482931    -0.56163796    -0.54865034
O     79.80000000     0.00000000     0.00000000
H     79.28577579    -0.02027494    -0.81206671
H     79.82047113     0.93339626     0.22943915
O     83.60000000     0.00000000     0.00000000
H     83.59040312    -0.94630804    -0.16940763
H     82.69685217     0.18881703     0.27011497
O     87.40000000     0.00000000     0.00000000
H     88.35534431    -0.03643873    -0.10138756
H     87.10748697    -0.85823213    -0.31963058
O     91.20000000     0.00000000     0.00000000
H     91.08554604     0.53748769    -0.78885819
H     92.05819679    -0.41269450    -0.13217969
O     95.00000000     0.00000000     0.00000000
H     95.03317090     0.50220951    -0.81913080
H     94.64891344     0.63016202     0.63555016
O     98.80000000     0.00000000     0.00000000
H     98.28998014    -0.80955494    -0.09375766
H     99.52281266    -0.25600301     0.57990885
O    102.60000000     0.00000000     0.00000000
H    103.00666740     0.87054448    -0.03261735
H    101.65817565     0.19108618    -0.02725655
O    106.40000000     0.00000000     0.00000000
H    106.22335437    -0.68202959    -0.65415741
H    107.33446642    -0.11322549     0.19555680
O    110.20000000     0.00000000     0.00000000
H    109.88973593     0.73115192    -0.54170383
H    109.94379027     0.25598316     0.89057237
O    114.00000000     0.00000000     0.00000000
H    113.61688346    -0.84987866     0.23498499
H    113.68552247     0.58730144     0.69316006
O    117.80000000     0.00000000     0.00000000
H    118.55927591    -0.53085978     0.25686171
H    117.06797743    -0.62207461     0.03815871
O    121.60000000     0.00000000     0.00000000
H    122.20469400     0.67032351    -0.33060781
H    122.18287346    -0.71765406     0.26366862
O    125.40000000     0.00000000     0.00000000
H    124.76852696     0.71417086    -0.12446586
H    125.79058068     0.19260257     0.85711198
O    129.20000000     0.00000000     0.00000000
H    129.29699447    -0.71068090     0.64016771
H    129.39026011     0.79100527     0.51225162
O    133.00000000     0.00000000     0.00000000
H    132.41611823     0.51227307     0.56652302
H    132.49548689    -0.79864365    -0.17867515
O    136.80000000     0.00000000     0.00000000
H    137.60319611    -0.52714922    -0.03577248
H    137.12626042     0.90230982     0.06067199
O    140.60000000     0.00000000     0.00000000
H    139.77929899     0.45655252     0.20566867
H    140.57485528    -0.77428468     0.56933377
O    144.40000000     0.00000000     0.00000000
H    144.52373153    -0.32641769     0.89578567
H    144.32396708     0.95130873     0.11627833
O    148.20000000     0.00000000     0.00000000
H    148.26834793    -0.67497152     0.68119892
H    147.48407481    -0.31627976    -0.55830833
O    152.00000000     0.00000000     0.00000000
H    152.91690326     0.28717177     0.03332799
H    152.06338605    -0.92369726    -0.25895084
O    155.80000000     0.00000000     0.00000000
H    155.54200434     0.88379254     0.27683741
H    156.73699182    -0.03703840     0.21204822
O    159.60000000     0.00000000     0.00000000
H    159.17720309    -0.01547118     0.86330376
H    159.49196635     0.91133351    -0.28651340
O    163.40000000     0.00000000     0.00000000
H    162.91407257    -0.66044652     0.50197100
H    163.45969357    -0.38517758    -0.87884291
O    167.20000000     0.00000000     0.00000000
H    167.96435920     0.55464887    -0.18002669
H    166.48652331     0.44202617    -0.46888575
O    171.00000000     0.00000000     0.00000000
H    170.36201083    -0.71517111     0.07609247
H    171.84764494    -0.45355960     0.00846823
O    174.80000000     0.00000000     0.00000000
H    175.10294317     0.70806456     0.57546500
H    174.07256566     0.40035325    -0.48460964
O    178.60000000     0.00000000     0.00000000
H    178.30965159    -0.91029115     0.10657289
H    178.71402935     0.08939346    -0.95041889
O    182.40000000     0.00000000     0.00000000
H    183.18313550     0.00404865    -0.55764895
H    181.83687812    -0.66343166    -0.40870790
O    186.20000000     0.00000000     0.00000000
H    186.50422379     0.87898367    -0.24315747
H    187.01436851    -0.50390072     0.08472276
O    190.00000000     0.00000000     0.00000000
H    189.15416864     0.40260979     0.21625133
H    190.49909651     0.72266630    -0.39108318
O    193.80000000     0.00000000     0.00000000
H    193.55346696    -0.88039794    -0.29733967
H    193.53451802     0.56607801    -0.73031840
O    197.60000000     0.00000000     0.00000000
H    197.67446612     0.38456940    -0.87798128
H    196.85600607    -0.60340469    -0.08164424
O    201.40000000     0.00000000     0.00000000
H    201.89912617    -0.68444934    -0.45463406
H    202.08223018     0.55150436     0.39331270
O    205.20000000     0.00000000     0.00000000
H    204.58177486     0.73620909     0.00915471
H    204.63145574    -0.76932207    -0.09586939
O    209.00000000     0.00000000     0.00000000
H    209.51591239    -0.64063084    -0.49771126
H    209.29542198     0.84575810    -0.34886824
O    212.80000000     0.00000000     0.00000000
H    212.66657165    -0.05700803    -0.95038777
H    212.24782882    -0.70642499     0.34693038
O    216.60000000     0.00000000     0.00000000
H    217.37851269     0.40085553    -0.39689141
H    216.95675163    -0.49653103     0.74194014
O    220.40000000     0.00000000     0.00000000
H    219.84833625     0.78314068     0.08153364
H    221.28389818     0.32741749     0.18923994
O    224.20000000     0.00000000     0.00000000
H    223.46462986    -0.46740492    -0.40626760
H    223.92500881     0.92073008    -0.03042883
O    228.00000000     0.00000000     0.00000000
H    228.01265107    -0.62461761    -0.73074123
H    227.43309048    -0.42572125     0.64935735
O    231.80000000     0.00000000     0.00000000
H    232.71827738     0.27552834    -0.07169904
H    231.57298174     0.21034741     0.91022340
O    235.60000000     0.00000000     0.00000000
H    234.76050260    -0.26363856     0.38733549
H    236.19853405    -0.70618706     0.25951258
O    239.40000000     0.00000000     0.00000000
H    240.21227013     0.50204664    -0.11160811
H    238.72060462     0.67889378     0.04260416
O    243.20000000     0.00000000     0.00000000
H    242.61370405    -0.67772316    -0.34819296
H    243.70508811    -0.46451878     0.67334855
O    247.00000000     0.00000000     0.00000000
H    247.77921096     0.43585805     0.35657818
H    246.48990938    -0.22411346     0.78349900
O    250.80000000     0.00000000     0.00000000
H    250.67249361     0.60639737     0.73506075
H    251.73735707    -0.20951451     0.04189703
