201
cluster of 67 water molecules, AM1 monomer geometry, closest intermolecular contact 1.922 A
O      0.00000000     0.00000000     0.00000000
H      0.96140000     0.00000000     0.00000000
H     -0.22443437     0.93483644     0.00000000
O      3.80000000     0.00000000     0.00000000
H      2.95425679    -0.24655118    -0.38499468
H      4.01789094    -0.74926051     0.56162459
O      7.60000000     0.00000000     0.00000000
H      8.52942643     0.11883708     0.21525385
H      7.15791825     0.10783270     0.84689185
O     11.40000000     0.00000000     0.00000000
H     11.34090565     0.59822888     0.75027996
H     12.20723750    -0.49381138     0.16972891
O     15.20000000     0.00000000     0.00000000
H     14.32598298     0.27744229     0.28880787
H     15.64183870     0.82863288    -0.20600018
O      0.00000000     3.80000000     0.00000000
H     -0.34428655     2.90517989    -0.07108941
H     -0.74744983     4.30193351     0.33715200
O      3.80000000     3.80000000     0.00000000
H      4.59512597     3.70397172     0.53183007
H      3.13333359     3.32635939     0.50548040
O      7.60000000     3.80000000     0.00000000
H      7.53171057     3.63344095     0.94439642
H      8.44679492     3.41067235    -0.23590740
O     11.40000000     3.80000000     0.00000000
H     11.56433073     4.67233631     0.36920826
H     10.62603418     3.93316259    -0.55455801
O     15.20000000     3.80000000     0.00000000
H     15.06061571     2.84876581     0.00393686
H     16.15738393     3.88660677     0.01432593
O      0.00000000     7.60000000     0.00000000
H      0.07895852     8.36606900     0.57549440
H     -0.91300517     7.32322198     0.11876638
O      3.80000000     7.60000000     0.00000000
H      4.18047251     7.34324779     0.84475377
H      4.52396115     7.47375278    -0.61986438
O      7.60000000     7.60000000     0.00000000
H      7.04319539     8.36731095     0.15966366
H      8.05090405     7.81682287    -0.82095270
O     11.40000000     7.60000000     0.00000000
H     10.66641461     7.01121097    -0.19867036
H     11.04189795     8.47368137    -0.18092467
O     15.20000000     7.60000000     0.00000000
H     15.68772516     6.85005607     0.35213382
H     14.30500088     7.26164738    -0.09372320
O      0.00000000    11.40000000     0.00000000
H      0.80130391    11.57042356     0.50314791
H      0.31856161    10.93438484    -0.77846707
O      3.80000000    11.40000000     0.00000000
H      3.16293211    12.07720864    -0.24458724
H      3.96511936    10.93808498    -0.82683739
O      7.60000000    11.40000000     0.00000000
H      8.27735388    10.99023691    -0.54550517
H      7.76862505    12.34099370    -0.10191370
O     11.40000000    11.40000000     0.00000000
H     10.47933788    11.67542606     0.02849054
H     11.34660267    10.44032483    -0.02150018
O     15.20000000    11.40000000     0.00000000
H     16.15093517    11.31686660     0.11446003
H     15.11249167    12.10964037    -0.64268406
O      0.00000000    15.20000000     0.00000000
H     -0.60995571    15.59594423    -0.62886577
H      0.55482931    14.63836204    -0.54865034
O      3.80000000    15.20000000     0.00000000
H      3.28577579    15.17972506    -0.81206671
H      3.82047113    16.13339626     0.22943915
O      7.60000000    15.20000000     0.00000000
H      7.59040312    14.25369196    -0.16940763
H      6.69685217    15.38881703     0.27011497
O     11.40000000    15.20000000     0.00000000
H     12.35534431    15.16356127    -0.10138756
H     11.10748697    14.34176787    -0.31963058
O     15.20000000    15.20000000     0.00000000
H     15.08554604    15.73748769    -0.78885819
H     16.05819679    14.78730550    -0.13217969
O      0.00000000     0.00000000     3.80000000
H      0.03317090     0.50220951     2.98086920
H     -0.35108656     0.63016202     4.43555016
O      3.80000000     0.00000000     3.80000000
H      3.28998014    -0.80955494     3.70624234
H      4.52281266    -0.25600301     4.37990885
O      7.60000000     0.00000000     3.80000000
H      8.00666740     0.87054448     3.76738265
H      6.65817565     0.19108618     3.77274345
O     11.40000000     0.00000000     3.80000000
H     11.22335437    -0.68202959     3.14584259
H     12.33446642    -0.11322549     3.99555680
O     15.20000000     0.00000000     3.80000000
H     14.88973593     0.73115192     3.25829617
H     14.94379027     0.25598316     4.69057237
O      0.00000000     3.80000000     3.80000000
H     -0.38311654     2.95012134     4.03498499
H     -0.31447753     4.38730144     4.49316006
O      3.80000000     3.80000000     3.80000000
H      4.55927591     3.26914022     4.05686171
H      3.06797743     3.17792539     3.83815871
O      7.60000000     3.80000000     3.80000000
H      8.20469400     4.47032351     3.46939219
H      8.18287346     3.08234594     4.06366862
O     11.40000000     3.80000000     3.80000000
H     10.76852696     4.51417086     3.67553414
H     11.79058068     3.99260257     4.65711198
O     15.20000000     3.80000000     3.80000000
H     15.29699447     3.08931910     4.44016771
H     15.39026011     4.59100527     4.31225162
O      0.00000000     7.60000000     3.80000000
H     -0.58388177     8.11227307     4.36652302
H     -0.50451311     6.80135635     3.62132485
O      3.80000000     7.60000000     3.80000000
H      4.60319611     7.07285078     3.76422752
H      4.12626042     8.50230982     3.86067199
O      7.60000000     7.60000000     3.80000000
H      6.77929899     8.05655252     4.00566867
H      7.57485528     6.82571532     4.36933377
O     11.40000000     7.60000000     3.80000000
H     11.52373153     7.27358231     4.69578567
H     11.32396708     8.55130873     3.91627833
O     15.20000000     7.60000000     3.80000000
H     15.26834793     6.92502848     4.48119892
H     14.48407481     7.28372024     3.24169167
O      0.00000000    11.40000000     3.80000000
H      0.91690326    11.68717177     3.83332799
H      0.06338605    10.47630274     3.54104916
O      3.80000000    11.40000000     3.80000000
H      3.54200434    12.28379254     4.07683741
H      4.73699182    11.36296160     4.01204822
O      7.60000000    11.40000000     3.80000000
H      7.17720309    11.38452882     4.66330376
H      7.49196635    12.31133351     3.51348660
O     11.40000000    11.40000000     3.80000000
H     10.91407257    10.73955348     4.30197100
H     11.45969357    11.01482242     2.92115709
O     15.20000000    11.40000000     3.80000000
H     15.96435920    11.95464887     3.61997331
H     14.48652331    11.84202617     3.33111425
O      0.00000000    15.20000000     3.80000000
H     -0.63798917    14.48482889     3.87609247
H      0.84764494    14.74644040     3.80846823
O      3.80000000    15.20000000     3.80000000
H      4.10294317    15.90806456     4.37546500
H      3.07256566    15.60035325     3.31539036
O      7.60000000    15.20000000     3.80000000
H      7.30965159    14.28970885     3.90657289
H      7.71402935    15.28939346     2.84958111
O     11.40000000    15.20000000     3.80000000
H     12.18313550    15.20404865     3.24235105
H     10.83687812    14.53656834     3.39129210
O     15.20000000    15.20000000     3.80000000
H     15.50422379    16.07898367     3.55684253
H     16.01436851    14.69609928     3.88472276
O      0.00000000     0.00000000     7.60000000
H     -0.84583136     0.40260979     7.81625133
H      0.49909651     0.72266630     7.20891682
O      3.80000000     0.00000000     7.60000000
H      3.55346696    -0.88039794     7.30266033
H      3.53451802     0.56607801     6.86968160
O      7.60000000     0.00000000     7.60000000
H      7.67446612     0.38456940     6.72201872
H      6.85600607    -0.60340469     7.51835576
O     11.40000000     0.00000000     7.60000000
H     11.89912617    -0.68444934     7.14536594
H     12.08223018     0.55150436     7.99331270
O     15.20000000     0.00000000     7.60000000
H     14.58177486     0.73620909     7.60915471
H     14.63145574    -0.76932207     7.50413061
O      0.00000000     3.80000000     7.60000000
H      0.51591239     3.15936916     7.10228874
H      0.29542198     4.64575810     7.25113176
O      3.80000000     3.80000000     7.60000000
H      3.66657165     3.74299197     6.64961223
H      3.24782882     3.09357501     7.94693038
O      7.60000000     3.80000000     7.60000000
H      8.37851269     4.20085553     7.20310859
H      7.95675163     3.30346897     8.34194014
O     11.40000000     3.80000000     7.60000000
H     10.84833625     4.58314068     7.68153364
H     12.28389818     4.12741749     7.78923994
O     15.20000000     3.80000000     7.60000000
H     14.46462986     3.33259508     7.19373240
H     14.92500881     4.72073008     7.56957117
O      0.00000000     7.60000000     7.60000000
H      0.01265107     6.97538239     6.86925877
H     -0.56690952     7.17427875     8.24935735
O      3.80000000     7.60000000     7.60000000
H      4.71827738     7.87552834     7.52830096
H      3.57298174     7.81034741     8.51022340
O      7.60000000     7.60000000     7.60000000
H      6.76050260     7.33636144     7.98733549
H      8.19853405     6.89381294     7.85951258
O     11.40000000     7.60000000     7.60000000
H     12.21227013     8.10204664     7.48839189
H     10.72060462     8.27889378     7.64260416
O     15.20000000     7.60000000     7.60000000
H     14.61370405     6.92227684     7.25180704
H     15.70508811     7.13548122     8.27334855
O      0.00000000    11.40000000     7.60000000
H      0.77921096    11.83585805     7.95657818
H     -0.51009062    11.17588654     8.38349900
O      3.80000000    11.40000000     7.60000000
H      3.67249361    12.00639737     8.33506075
H      4.73735707    11.19048549     7.64189703
